$ OLD NAME: ug16-e3x11-iso.bdf 
$ NASTRAN input file created by the MSC MSC.Nastran input file
$ translator ( MD Patran 15.0.008 ) on December  18, 2006 at 12:46:32.
$ Direct Text Input for Nastran System Cell Section
$ Direct Text Input for File Management Section
$ Implicit Nonlinear Analysis
$ id msc, nug_16is.dat $ 24-Aug-2007 v20071 A_Danek
SOL 400
$ Direct Text Input for Executive Control
CEND
TITLE = MD Nastran job created on 15-Dec-06 at 15:03:20
$ Direct Text Input for Global Case Control Data
   BCONTACT = 0
SUBCASE 1
 STEP 1
   TITLE=This is a default subcase.
   ANALYSIS = NLSTATIC
   NLPARM = 1
   BCONTACT = 1
   SPC = 2
   LOAD = 1
   DISPLACEMENT(SORT1,REAL)=ALL
   SPCFORCES(SORT1,REAL)=ALL
   STRESS(SORT1,REAL,VONMISES,BILIN)=ALL
   NLSTRESS(PRINT)=ALL
   BOUTPUT(PRINT)=ALL
$ Direct Text Input for this Subcase
BEGIN BULK
PARAM POST -6

$PARAM      K6ROT100.0000
$PARAM     OIBULK     YES
$PARAM    OMACHPR     YES
$PARAM       POST      -6
$PARAM    POSTEXT     YES

PARAM PRTMAXIM YES
$ Convert Elements to Equivalent Reduced Integration Elements
BCPARA   0       NBODIES 4       MAXENT  67500   MAXNOD  381
        FTYPE   6       BIAS    9.5E-01 ISPLIT  3
        NLGLUE  1       FNTOL   5.E1
PARAM    LGDISP  1
NLPARM   1       100             PFNT    0       30      U       NO
$
BCTABLE  0                       3
         SLAVE   7       0.0     50.     0.05    0.      0
                 0       0       0
                 FBSH            0.95
         MASTERS 2
         SLAVE   7       0.0     50.     0.05    0.      0
                 0       0       0
                 FBSH            0.95
         MASTERS 3
         SLAVE   7       0.0     50.     0.05    0.      0
                 0       0       0 
                 FBSH            0.95
         MASTERS 1
BCTABLE  1                       3
         SLAVE   7       0.0     50.     0.05    0.      0
                 0       0       0
                 FBSH            0.95
         MASTERS 2
         SLAVE   7       0.0     50.     0.05    0.      0
                 0       0       0
                 FBSH            0.95
         MASTERS 3
         SLAVE   7       0.0     50.     0.05    0.      0
                 0       0       0
                 FBSH            0.95
         MASTERS 1
$ Direct Text Input for Bulk Data
nlmopts,lrgstr,1
pshln1,1,1
,c4,dct,lrih
$ Elements and Element Properties for region : shell
PSHELL   1       1      1.       1               1
$ Pset: "shell" will be imported as: "pshell.1"
CQUAD4   19      1       40      22      3       4       0
CQUAD4   20      1       41      23      22      40      0
CQUAD4   21      1       42      24      23      41      0
CQUAD4   22      1       43      25      24      42      0
CQUAD4   23      1       44      26      25      43      0
CQUAD4   24      1       45      27      26      44      0
CQUAD4   25      1       46      28      27      45      0
CQUAD4   26      1       47      29      28      46      0
CQUAD4   27      1       48      30      29      47      0
CQUAD4   28      1       49      31      30      48      0
CQUAD4   29      1       50      32      31      49      0
CQUAD4   30      1       51      33      32      50      0
CQUAD4   31      1       52      34      33      51      0
CQUAD4   32      1       53      35      34      52      0
CQUAD4   33      1       54      36      35      53      0
CQUAD4   34      1       55      37      36      54      0
CQUAD4   35      1       56      38      37      55      0
CQUAD4   36      1       57      39      38      56      0
CQUAD4   37      1       58      40      4       5       0
CQUAD4   38      1       59      41      40      58      0
CQUAD4   39      1       60      42      41      59      0
CQUAD4   40      1       61      43      42      60      0
CQUAD4   41      1       62      44      43      61      0
CQUAD4   42      1       63      45      44      62      0
CQUAD4   43      1       64      46      45      63      0
CQUAD4   44      1       65      47      46      64      0
CQUAD4   45      1       66      48      47      65      0
CQUAD4   46      1       67      49      48      66      0
CQUAD4   47      1       68      50      49      67      0
CQUAD4   48      1       69      51      50      68      0
CQUAD4   49      1       70      52      51      69      0
CQUAD4   50      1       71      53      52      70      0
CQUAD4   51      1       72      54      53      71      0
CQUAD4   52      1       73      55      54      72      0
CQUAD4   53      1       74      56      55      73      0
CQUAD4   54      1       75      57      56      74      0
CQUAD4   55      1       76      58      5       6       0
CQUAD4   56      1       77      59      58      76      0
CQUAD4   57      1       78      60      59      77      0
CQUAD4   58      1       79      61      60      78      0
CQUAD4   59      1       80      62      61      79      0
CQUAD4   60      1       81      63      62      80      0
CQUAD4   61      1       82      64      63      81      0
CQUAD4   62      1       83      65      64      82      0
CQUAD4   63      1       84      66      65      83      0
CQUAD4   64      1       85      67      66      84      0
CQUAD4   65      1       86      68      67      85      0
CQUAD4   66      1       87      69      68      86      0
CQUAD4   67      1       88      70      69      87      0
CQUAD4   68      1       89      71      70      88      0
CQUAD4   69      1       90      72      71      89      0
CQUAD4   70      1       91      73      72      90      0
CQUAD4   71      1       92      74      73      91      0
CQUAD4   72      1       93      75      74      92      0
CQUAD4   73      1       94      76      6       7       0
CQUAD4   74      1       95      77      76      94      0
CQUAD4   75      1       96      78      77      95      0
CQUAD4   76      1       97      79      78      96      0
CQUAD4   77      1       98      80      79      97      0
CQUAD4   78      1       99      81      80      98      0
CQUAD4   79      1       100     82      81      99      0
CQUAD4   80      1       101     83      82      100     0
CQUAD4   81      1       102     84      83      101     0
CQUAD4   82      1       103     85      84      102     0
CQUAD4   83      1       104     86      85      103     0
CQUAD4   84      1       105     87      86      104     0
CQUAD4   85      1       106     88      87      105     0
CQUAD4   86      1       107     89      88      106     0
CQUAD4   87      1       108     90      89      107     0
CQUAD4   88      1       109     91      90      108     0
CQUAD4   89      1       110     92      91      109     0
CQUAD4   90      1       111     93      92      110     0
CQUAD4   91      1       112     94      7       8       0
CQUAD4   92      1       113     95      94      112     0
CQUAD4   93      1       114     96      95      113     0
CQUAD4   94      1       115     97      96      114     0
CQUAD4   95      1       116     98      97      115     0
CQUAD4   96      1       117     99      98      116     0
CQUAD4   97      1       118     100     99      117     0
CQUAD4   98      1       119     101     100     118     0
CQUAD4   99      1       120     102     101     119     0
CQUAD4   100     1       121     103     102     120     0
CQUAD4   101     1       122     104     103     121     0
CQUAD4   102     1       123     105     104     122     0
CQUAD4   103     1       124     106     105     123     0
CQUAD4   104     1       125     107     106     124     0
CQUAD4   105     1       126     108     107     125     0
CQUAD4   106     1       127     109     108     126     0
CQUAD4   107     1       128     110     109     127     0
CQUAD4   108     1       129     111     110     128     0
CQUAD4   109     1       130     112     8       9       0
CQUAD4   110     1       131     113     112     130     0
CQUAD4   111     1       132     114     113     131     0
CQUAD4   112     1       133     115     114     132     0
CQUAD4   113     1       134     116     115     133     0
CQUAD4   114     1       135     117     116     134     0
CQUAD4   115     1       136     118     117     135     0
CQUAD4   116     1       137     119     118     136     0
CQUAD4   117     1       138     120     119     137     0
CQUAD4   118     1       139     121     120     138     0
CQUAD4   119     1       140     122     121     139     0
CQUAD4   120     1       141     123     122     140     0
CQUAD4   121     1       142     124     123     141     0
CQUAD4   122     1       143     125     124     142     0
CQUAD4   123     1       144     126     125     143     0
CQUAD4   124     1       145     127     126     144     0
CQUAD4   125     1       146     128     127     145     0
CQUAD4   126     1       147     129     128     146     0
CQUAD4   127     1       148     130     9       10      0
CQUAD4   128     1       149     131     130     148     0
CQUAD4   129     1       150     132     131     149     0
CQUAD4   130     1       151     133     132     150     0
CQUAD4   131     1       152     134     133     151     0
CQUAD4   132     1       153     135     134     152     0
CQUAD4   133     1       154     136     135     153     0
CQUAD4   134     1       155     137     136     154     0
CQUAD4   135     1       156     138     137     155     0
CQUAD4   136     1       157     139     138     156     0
CQUAD4   137     1       158     140     139     157     0
CQUAD4   138     1       159     141     140     158     0
CQUAD4   139     1       160     142     141     159     0
CQUAD4   140     1       161     143     142     160     0
CQUAD4   141     1       162     144     143     161     0
CQUAD4   142     1       163     145     144     162     0
CQUAD4   143     1       164     146     145     163     0
CQUAD4   144     1       165     147     146     164     0
CQUAD4   145     1       166     148     10      11      0
CQUAD4   146     1       167     149     148     166     0
CQUAD4   147     1       168     150     149     167     0
CQUAD4   148     1       169     151     150     168     0
CQUAD4   149     1       170     152     151     169     0
CQUAD4   150     1       171     153     152     170     0
CQUAD4   151     1       172     154     153     171     0
CQUAD4   152     1       173     155     154     172     0
CQUAD4   153     1       174     156     155     173     0
CQUAD4   154     1       175     157     156     174     0
CQUAD4   155     1       176     158     157     175     0
CQUAD4   156     1       177     159     158     176     0
CQUAD4   157     1       178     160     159     177     0
CQUAD4   158     1       179     161     160     178     0
CQUAD4   159     1       180     162     161     179     0
CQUAD4   160     1       181     163     162     180     0
CQUAD4   161     1       182     164     163     181     0
CQUAD4   162     1       183     165     164     182     0
CQUAD4   163     1       184     166     11      12      0
CQUAD4   164     1       185     167     166     184     0
CQUAD4   165     1       186     168     167     185     0
CQUAD4   166     1       187     169     168     186     0
CQUAD4   167     1       188     170     169     187     0
CQUAD4   168     1       189     171     170     188     0
CQUAD4   169     1       190     172     171     189     0
CQUAD4   170     1       191     173     172     190     0
CQUAD4   171     1       192     174     173     191     0
CQUAD4   172     1       193     175     174     192     0
CQUAD4   173     1       194     176     175     193     0
CQUAD4   174     1       195     177     176     194     0
CQUAD4   175     1       196     178     177     195     0
CQUAD4   176     1       197     179     178     196     0
CQUAD4   177     1       198     180     179     197     0
CQUAD4   178     1       199     181     180     198     0
CQUAD4   179     1       200     182     181     199     0
CQUAD4   180     1       201     183     182     200     0
CQUAD4   181     1       202     184     12      13      0
CQUAD4   182     1       203     185     184     202     0
CQUAD4   183     1       204     186     185     203     0
CQUAD4   184     1       205     187     186     204     0
CQUAD4   185     1       206     188     187     205     0
CQUAD4   186     1       207     189     188     206     0
CQUAD4   187     1       208     190     189     207     0
CQUAD4   188     1       209     191     190     208     0
CQUAD4   189     1       210     192     191     209     0
CQUAD4   190     1       211     193     192     210     0
CQUAD4   191     1       212     194     193     211     0
CQUAD4   192     1       213     195     194     212     0
CQUAD4   193     1       214     196     195     213     0
CQUAD4   194     1       215     197     196     214     0
CQUAD4   195     1       216     198     197     215     0
CQUAD4   196     1       217     199     198     216     0
CQUAD4   197     1       218     200     199     217     0
CQUAD4   198     1       219     201     200     218     0
CQUAD4   199     1       220     202     13      14      0
CQUAD4   200     1       221     203     202     220     0
CQUAD4   201     1       222     204     203     221     0
CQUAD4   202     1       223     205     204     222     0
CQUAD4   203     1       224     206     205     223     0
CQUAD4   204     1       225     207     206     224     0
CQUAD4   205     1       226     208     207     225     0
CQUAD4   206     1       227     209     208     226     0
CQUAD4   207     1       228     210     209     227     0
CQUAD4   208     1       229     211     210     228     0
CQUAD4   209     1       230     212     211     229     0
CQUAD4   210     1       231     213     212     230     0
CQUAD4   211     1       232     214     213     231     0
CQUAD4   212     1       233     215     214     232     0
CQUAD4   213     1       234     216     215     233     0
CQUAD4   214     1       235     217     216     234     0
CQUAD4   215     1       236     218     217     235     0
CQUAD4   216     1       237     219     218     236     0
CQUAD4   217     1       238     220     14      15      0
CQUAD4   218     1       239     221     220     238     0
CQUAD4   219     1       240     222     221     239     0
CQUAD4   220     1       241     223     222     240     0
CQUAD4   221     1       242     224     223     241     0
CQUAD4   222     1       243     225     224     242     0
CQUAD4   223     1       244     226     225     243     0
CQUAD4   224     1       245     227     226     244     0
CQUAD4   225     1       246     228     227     245     0
CQUAD4   226     1       247     229     228     246     0
CQUAD4   227     1       248     230     229     247     0
CQUAD4   228     1       249     231     230     248     0
CQUAD4   229     1       250     232     231     249     0
CQUAD4   230     1       251     233     232     250     0
CQUAD4   231     1       252     234     233     251     0
CQUAD4   232     1       253     235     234     252     0
CQUAD4   233     1       254     236     235     253     0
CQUAD4   234     1       255     237     236     254     0
CQUAD4   235     1       256     238     15      16      0
CQUAD4   236     1       257     239     238     256     0
CQUAD4   237     1       258     240     239     257     0
CQUAD4   238     1       259     241     240     258     0
CQUAD4   239     1       260     242     241     259     0
CQUAD4   240     1       261     243     242     260     0
CQUAD4   241     1       262     244     243     261     0
CQUAD4   242     1       263     245     244     262     0
CQUAD4   243     1       264     246     245     263     0
CQUAD4   244     1       265     247     246     264     0
CQUAD4   245     1       266     248     247     265     0
CQUAD4   246     1       267     249     248     266     0
CQUAD4   247     1       268     250     249     267     0
CQUAD4   248     1       269     251     250     268     0
CQUAD4   249     1       270     252     251     269     0
CQUAD4   250     1       271     253     252     270     0
CQUAD4   251     1       272     254     253     271     0
CQUAD4   252     1       273     255     254     272     0
CQUAD4   253     1       274     256     16      17      0
CQUAD4   254     1       275     257     256     274     0
CQUAD4   255     1       276     258     257     275     0
CQUAD4   256     1       277     259     258     276     0
CQUAD4   257     1       278     260     259     277     0
CQUAD4   258     1       279     261     260     278     0
CQUAD4   259     1       280     262     261     279     0
CQUAD4   260     1       281     263     262     280     0
CQUAD4   261     1       282     264     263     281     0
CQUAD4   262     1       283     265     264     282     0
CQUAD4   263     1       284     266     265     283     0
CQUAD4   264     1       285     267     266     284     0
CQUAD4   265     1       286     268     267     285     0
CQUAD4   266     1       287     269     268     286     0
CQUAD4   267     1       288     270     269     287     0
CQUAD4   268     1       289     271     270     288     0
CQUAD4   269     1       290     272     271     289     0
CQUAD4   270     1       291     273     272     290     0
CQUAD4   271     1       292     274     17      18      0
CQUAD4   272     1       293     275     274     292     0
CQUAD4   273     1       294     276     275     293     0
CQUAD4   274     1       295     277     276     294     0
CQUAD4   275     1       296     278     277     295     0
CQUAD4   276     1       297     279     278     296     0
CQUAD4   277     1       298     280     279     297     0
CQUAD4   278     1       299     281     280     298     0
CQUAD4   279     1       300     282     281     299     0
CQUAD4   280     1       301     283     282     300     0
CQUAD4   281     1       302     284     283     301     0
CQUAD4   282     1       303     285     284     302     0
CQUAD4   283     1       304     286     285     303     0
CQUAD4   284     1       305     287     286     304     0
CQUAD4   285     1       306     288     287     305     0
CQUAD4   286     1       307     289     288     306     0
CQUAD4   287     1       308     290     289     307     0
CQUAD4   288     1       309     291     290     308     0
CQUAD4   289     1       310     292     18      19      0
CQUAD4   290     1       311     293     292     310     0
CQUAD4   291     1       312     294     293     311     0
CQUAD4   292     1       313     295     294     312     0
CQUAD4   293     1       314     296     295     313     0
CQUAD4   294     1       315     297     296     314     0
CQUAD4   295     1       316     298     297     315     0
CQUAD4   296     1       317     299     298     316     0
CQUAD4   297     1       318     300     299     317     0
CQUAD4   298     1       319     301     300     318     0
CQUAD4   299     1       320     302     301     319     0
CQUAD4   300     1       321     303     302     320     0
CQUAD4   301     1       322     304     303     321     0
CQUAD4   302     1       323     305     304     322     0
CQUAD4   303     1       324     306     305     323     0
CQUAD4   304     1       325     307     306     324     0
CQUAD4   305     1       326     308     307     325     0
CQUAD4   306     1       327     309     308     326     0
CQUAD4   307     1       328     310     19      20      0
CQUAD4   308     1       329     311     310     328     0
CQUAD4   309     1       330     312     311     329     0
CQUAD4   310     1       331     313     312     330     0
CQUAD4   311     1       332     314     313     331     0
CQUAD4   312     1       333     315     314     332     0
CQUAD4   313     1       334     316     315     333     0
CQUAD4   314     1       335     317     316     334     0
CQUAD4   315     1       336     318     317     335     0
CQUAD4   316     1       337     319     318     336     0
CQUAD4   317     1       338     320     319     337     0
CQUAD4   318     1       339     321     320     338     0
CQUAD4   319     1       340     322     321     339     0
CQUAD4   320     1       341     323     322     340     0
CQUAD4   321     1       342     324     323     341     0
CQUAD4   322     1       343     325     324     342     0
CQUAD4   323     1       344     326     325     343     0
CQUAD4   324     1       345     327     326     344     0
CQUAD4   325     1       346     328     20      21      0
CQUAD4   326     1       347     329     328     346     0
CQUAD4   327     1       348     330     329     347     0
CQUAD4   328     1       349     331     330     348     0
CQUAD4   329     1       350     332     331     349     0
CQUAD4   330     1       351     333     332     350     0
CQUAD4   331     1       352     334     333     351     0
CQUAD4   332     1       353     335     334     352     0
CQUAD4   333     1       354     336     335     353     0
CQUAD4   334     1       355     337     336     354     0
CQUAD4   335     1       356     338     337     355     0
CQUAD4   336     1       357     339     338     356     0
CQUAD4   337     1       358     340     339     357     0
CQUAD4   338     1       359     341     340     358     0
CQUAD4   339     1       360     342     341     359     0
CQUAD4   340     1       361     343     342     360     0
CQUAD4   341     1       362     344     343     361     0
CQUAD4   342     1       363     345     344     362     0
CQUAD4   343     1       364     346     21      1       0
CQUAD4   344     1       365     347     346     364     0
CQUAD4   345     1       366     348     347     365     0
CQUAD4   346     1       367     349     348     366     0
CQUAD4   347     1       368     350     349     367     0
CQUAD4   348     1       369     351     350     368     0
CQUAD4   349     1       370     352     351     369     0
CQUAD4   350     1       371     353     352     370     0
CQUAD4   351     1       372     354     353     371     0
CQUAD4   352     1       373     355     354     372     0
CQUAD4   353     1       374     356     355     373     0
CQUAD4   354     1       375     357     356     374     0
CQUAD4   355     1       376     358     357     375     0
CQUAD4   356     1       377     359     358     376     0
CQUAD4   357     1       378     360     359     377     0
CQUAD4   358     1       379     361     360     378     0
CQUAD4   359     1       380     362     361     379     0
CQUAD4   360     1       381     363     362     380     0
CQUAD4   361     1       2       3       22      23      0
CQUAD4   362     1       2       23      24      25      0
CQUAD4   363     1       2       25      26      27      0
CQUAD4   364     1       2       27      28      29      0
CQUAD4   365     1       2       29      30      31      0
CQUAD4   366     1       2       31      32      33      0
CQUAD4   367     1       2       33      34      35      0
CQUAD4   368     1       2       35      36      37      0
CQUAD4   369     1       2       37      38      39      0
$ Referenced Material Records
$ Material Record : iso
$ Description of Material : Date: 15-Dec-06           Time: 14:28:54
MATEP    1       Table           1               Isotrop Addmean
MAT1     1      70000.          .3      1.
$ Material Tables ( No Conversions Needed )
$ Stress/Strain Curve : plas
TABLES1  1       2
         0.     191.1   .0333333249.772 .0666667293.962 .1      327.244
        .133333 352.311 .166667 371.191 .2      385.411 .233333 396.121
        .266667 404.187 .3      410.262 .333333 414.838 .366667 418.284
        .4      420.88  .433333 422.835 .466667 424.307 .5      425.416
        .533333 426.251 .566667 426.881 .6      427.354 .633333 427.711
        .666667 427.98  .7      428.182 .733333 428.335 .766667 428.45
        .8      428.536 .833333 428.601 .866667 428.65  .9      428.687
        .933333 428.715 .966667 428.736 1.      428.752  ENDT
$ Nodes of the Entire Model
GRID     1              90.      0.     .5
GRID     2               0.      0.     .5
GRID     3              4.5      0.     .5
GRID     4              9.       0.     .5
GRID     5              13.5     0.     .5
GRID     6              18.      0.     .5
GRID     7              22.5     0.     .5
GRID     8              27.      0.     .5
GRID     9              31.5     0.     .5
GRID     10             36.      0.     .5
GRID     11             40.5     0.     .5
GRID     12             45.      0.     .5
GRID     13             49.5     0.     .5
GRID     14             54.      0.     .5
GRID     15             58.5     0.     .5
GRID     16             63.      0.     .5
GRID     17             67.5     0.     .5
GRID     18             72.      0.     .5
GRID     19             76.5     0.     .5
GRID     20             81.      0.     .5
GRID     21             85.5     0.     .5
GRID     22             4.48288 .392201 .5
GRID     23             4.43164 .781417 .5
GRID     24             4.34667 1.16469 .5
GRID     25             4.22862 1.53909 .5
GRID     26             4.07839 1.90178 .5
GRID     27             3.89711 2.25    .5
GRID     28             3.68618 2.58109 .5
GRID     29             3.4472  2.89254 .5
GRID     30             3.18198 3.18198 .5
GRID     31             2.89254 3.4472  .5
GRID     32             2.58109 3.68618 .5
GRID     33             2.25    3.89711 .5
GRID     34             1.90178 4.07839 .5
GRID     35             1.53909 4.22862 .5
GRID     36             1.16469 4.34667 .5
GRID     37             .781417 4.43164 .5
GRID     38             .392201 4.48288 .5
GRID*    39                             -6.66134-16     4.5
*       .5
GRID     40             8.96575 .784402 .5
GRID     41             8.86327 1.56283 .5
GRID     42             8.69333 2.32937 .5
GRID     43             8.45723 3.07818 .5
GRID     44             8.15677 3.80356 .5
GRID     45             7.79423 4.5     .5
GRID     46             7.37237 5.16219 .5
GRID     47             6.8944  5.78509 .5
GRID     48             6.36396 6.36396 .5
GRID     49             5.78509 6.8944  .5
GRID     50             5.16219 7.37237 .5
GRID     51             4.5     7.79423 .5
GRID     52             3.80356 8.15677 .5
GRID     53             3.07818 8.45723 .5
GRID     54             2.32937 8.69333 .5
GRID     55             1.56283 8.86327 .5
GRID     56             .784402 8.96575 .5
GRID*    57                             -1.33227-15     9.
*       .5
GRID     58             13.4486 1.1766  .5
GRID     59             13.2949 2.34425 .5
GRID     60             13.04   3.49406 .5
GRID     61             12.6859 4.61727 .5
GRID     62             12.2352 5.70535 .5
GRID     63             11.6913 6.75    .5
GRID     64             11.0586 7.74328 .5
GRID     65             10.3416 8.67763 .5
GRID     66             9.54594 9.54594 .5
GRID     67             8.67763 10.3416 .5
GRID     68             7.74328 11.0586 .5
GRID     69             6.75    11.6913 .5
GRID     70             5.70535 12.2352 .5
GRID     71             4.61727 12.6859 .5
GRID     72             3.49406 13.04   .5
GRID     73             2.34425 13.2949 .5
GRID     74             1.1766  13.4486 .5
GRID*    75                             2.22045-16      13.5
*       .5
GRID     76             17.9315 1.5688  .5
GRID     77             17.7265 3.12567 .5
GRID     78             17.3867 4.65874 .5
GRID     79             16.9145 6.15636 .5
GRID     80             16.3135 7.60713 .5
GRID     81             15.5885 9.      .5
GRID     82             14.7447 10.3244 .5
GRID     83             13.7888 11.5702 .5
GRID     84             12.7279 12.7279 .5
GRID     85             11.5702 13.7888 .5
GRID     86             10.3244 14.7447 .5
GRID     87             9.      15.5885 .5
GRID     88             7.60713 16.3135 .5
GRID     89             6.15636 16.9145 .5
GRID     90             4.65874 17.3867 .5
GRID     91             3.12567 17.7265 .5
GRID     92             1.5688  17.9315 .5
GRID*    93                             -2.66454-15     18.
*       .5
GRID     94             22.4144 1.961   .5
GRID     95             22.1582 3.90708 .5
GRID     96             21.7333 5.82343 .5
GRID     97             21.1431 7.69545 .5
GRID     98             20.3919 9.50891 .5
GRID     99             19.4856 11.25   .5
GRID     100            18.4309 12.9055 .5
GRID     101            17.236  14.4627 .5
GRID     102            15.9099 15.9099 .5
GRID     103            14.4627 17.236  .5
GRID     104            12.9055 18.4309 .5
GRID     105            11.25   19.4856 .5
GRID     106            9.50891 20.3919 .5
GRID     107            7.69545 21.1431 .5
GRID     108            5.82343 21.7333 .5
GRID     109            3.90708 22.1582 .5
GRID     110            1.961   22.4144 .5
GRID*    111                            -6.66134-16     22.5
*       .5
GRID     112            26.8973 2.35321 .5
GRID     113            26.5898 4.6885  .5
GRID     114            26.08   6.98811 .5
GRID     115            25.3717 9.23454 .5
GRID     116            24.4703 11.4107 .5
GRID     117            23.3827 13.5    .5
GRID     118            22.1171 15.4866 .5
GRID     119            20.6832 17.3553 .5
GRID     120            19.0919 19.0919 .5
GRID     121            17.3553 20.6832 .5
GRID     122            15.4866 22.1171 .5
GRID     123            13.5    23.3827 .5
GRID     124            11.4107 24.4703 .5
GRID     125            9.23454 25.3717 .5
GRID     126            6.98811 26.08   .5
GRID     127            4.6885  26.5898 .5
GRID     128            2.35321 26.8973 .5
GRID*    129                            4.44089-16      27.
*       .5
GRID     130            31.3801 2.74541 .5
GRID     131            31.0214 5.46992 .5
GRID     132            30.4267 8.1528  .5
GRID     133            29.6003 10.7736 .5
GRID     134            28.5487 13.3125 .5
GRID     135            27.2798 15.75   .5
GRID     136            25.8033 18.0677 .5
GRID     137            24.1304 20.2478 .5
GRID     138            22.2739 22.2739 .5
GRID     139            20.2478 24.1304 .5
GRID     140            18.0677 25.8033 .5
GRID     141            15.75   27.2798 .5
GRID     142            13.3125 28.5487 .5
GRID     143            10.7736 29.6003 .5
GRID     144            8.1528  30.4267 .5
GRID     145            5.46992 31.0214 .5
GRID     146            2.74541 31.3801 .5
GRID*    147                            4.44089-16      31.5
*       .5
GRID     148            35.863  3.13761 .5
GRID     149            35.4531 6.25133 .5
GRID     150            34.7733 9.31749 .5
GRID     151            33.8289 12.3127 .5
GRID     152            32.6271 15.2143 .5
GRID     153            31.1769 18.     .5
GRID     154            29.4895 20.6488 .5
GRID     155            27.5776 23.1404 .5
GRID     156            25.4558 25.4558 .5
GRID     157            23.1404 27.5776 .5
GRID     158            20.6488 29.4895 .5
GRID     159            18.     31.1769 .5
GRID     160            15.2143 32.6271 .5
GRID     161            12.3127 33.8289 .5
GRID     162            9.31749 34.7733 .5
GRID     163            6.25133 35.4531 .5
GRID     164            3.13761 35.863  .5
GRID*    165                            -5.32907-15     36.
*       .5
GRID     166            40.3459 3.52981 .5
GRID     167            39.8847 7.03275 .5
GRID     168            39.12   10.4822 .5
GRID     169            38.0576 13.8518 .5
GRID     170            36.7055 17.116  .5
GRID     171            35.074  20.25   .5
GRID     172            33.1757 23.2299 .5
GRID     173            31.0248 26.0329 .5
GRID     174            28.6378 28.6378 .5
GRID     175            26.0329 31.0248 .5
GRID     176            23.2299 33.1757 .5
GRID     177            20.25   35.074  .5
GRID     178            17.116  36.7055 .5
GRID     179            13.8518 38.0576 .5
GRID     180            10.4822 39.12   .5
GRID     181            7.03275 39.8847 .5
GRID     182            3.52981 40.3459 .5
GRID*    183                            -6.66134-15     40.5
*       .5
GRID     184            44.8288 3.92201 .5
GRID     185            44.3164 7.81417 .5
GRID     186            43.4667 11.6469 .5
GRID     187            42.2862 15.3909 .5
GRID     188            40.7839 19.0178 .5
GRID     189            38.9711 22.5    .5
GRID     190            36.8618 25.8109 .5
GRID     191            34.472  28.9254 .5
GRID     192            31.8198 31.8198 .5
GRID     193            28.9254 34.472  .5
GRID     194            25.8109 36.8618 .5
GRID     195            22.5    38.9711 .5
GRID     196            19.0178 40.7839 .5
GRID     197            15.3909 42.2862 .5
GRID     198            11.6469 43.4667 .5
GRID     199            7.81417 44.3164 .5
GRID     200            3.92201 44.8288 .5
GRID*    201                            -1.33227-15     45.
*       .5
GRID     202            49.3116 4.31421 .5
GRID     203            48.748  8.59559 .5
GRID     204            47.8133 12.8115 .5
GRID     205            46.5148 16.93   .5
GRID     206            44.8622 20.9196 .5
GRID     207            42.8683 24.75   .5
GRID     208            40.548  28.392  .5
GRID     209            37.9192 31.818  .5
GRID     210            35.0018 35.0018 .5
GRID     211            31.818  37.9192 .5
GRID     212            28.392  40.548  .5
GRID     213            24.75   42.8683 .5
GRID     214            20.9196 44.8622 .5
GRID     215            16.93   46.5148 .5
GRID     216            12.8115 47.8133 .5
GRID     217            8.59559 48.748  .5
GRID     218            4.31421 49.3116 .5
GRID*    219                            8.88178-15      49.5
*       .5
GRID     220            53.7945 4.70641 .5
GRID     221            53.1796 9.377   .5
GRID     222            52.16   13.9762 .5
GRID     223            50.7434 18.4691 .5
GRID     224            48.9406 22.8214 .5
GRID     225            46.7654 27.     .5
GRID     226            44.2342 30.9731 .5
GRID     227            41.3664 34.7105 .5
GRID     228            38.1838 38.1838 .5
GRID     229            34.7105 41.3664 .5
GRID     230            30.9731 44.2342 .5
GRID     231            27.     46.7654 .5
GRID     232            22.8214 48.9406 .5
GRID     233            18.4691 50.7434 .5
GRID     234            13.9762 52.16   .5
GRID     235            9.377   53.1796 .5
GRID     236            4.70641 53.7945 .5
GRID*    237                            -3.55271-15     54.
*       .5
GRID     238            58.2774 5.09861 .5
GRID     239            57.6113 10.1584 .5
GRID     240            56.5067 15.1409 .5
GRID     241            54.972  20.0082 .5
GRID     242            53.019  24.7232 .5
GRID     243            50.6625 29.25   .5
GRID     244            47.9204 33.5542 .5
GRID     245            44.8136 37.6031 .5
GRID     246            41.3658 41.3658 .5
GRID     247            37.6031 44.8136 .5
GRID     248            33.5542 47.9204 .5
GRID     249            29.25   50.6625 .5
GRID     250            24.7232 53.019  .5
GRID     251            20.0082 54.972  .5
GRID     252            15.1409 56.5067 .5
GRID     253            10.1584 57.6113 .5
GRID     254            5.09861 58.2774 .5
GRID*    255                            -4.44089-15     58.5
*       .5
GRID     256            62.7603 5.49081 .5
GRID     257            62.0429 10.9398 .5
GRID     258            60.8533 16.3056 .5
GRID     259            59.2006 21.5473 .5
GRID     260            57.0974 26.625  .5
GRID     261            54.5596 31.5    .5
GRID     262            51.6066 36.1353 .5
GRID     263            48.2608 40.4956 .5
GRID     264            44.5477 44.5477 .5
GRID     265            40.4956 48.2608 .5
GRID     266            36.1353 51.6066 .5
GRID     267            31.5    54.5596 .5
GRID     268            26.625  57.0974 .5
GRID     269            21.5473 59.2006 .5
GRID     270            16.3056 60.8533 .5
GRID     271            10.9398 62.0429 .5
GRID     272            5.49081 62.7603 .5
GRID*    273                            3.55271-15      63.
*       .5
GRID     274            67.2431 5.88301 .5
GRID     275            66.4745 11.7213 .5
GRID     276            65.2    17.4703 .5
GRID     277            63.4293 23.0864 .5
GRID     278            61.1758 28.5267 .5
GRID     279            58.4567 33.75   .5
GRID     280            55.2928 38.7164 .5
GRID     281            51.708  43.3882 .5
GRID     282            47.7297 47.7297 .5
GRID     283            43.3882 51.708  .5
GRID     284            38.7164 55.2928 .5
GRID     285            33.75   58.4567 .5
GRID     286            28.5267 61.1758 .5
GRID     287            23.0864 63.4293 .5
GRID     288            17.4703 65.2    .5
GRID     289            11.7213 66.4745 .5
GRID     290            5.88301 67.2431 .5
GRID*    291                            7.99361-15      67.5
*       .5
GRID     292            71.726  6.27521 .5
GRID     293            70.9062 12.5027 .5
GRID     294            69.5467 18.635  .5
GRID     295            67.6579 24.6255 .5
GRID     296            65.2542 30.4285 .5
GRID     297            62.3538 36.     .5
GRID     298            58.979  41.2975 .5
GRID     299            55.1552 46.2807 .5
GRID     300            50.9117 50.9117 .5
GRID     301            46.2807 55.1552 .5
GRID     302            41.2975 58.979  .5
GRID     303            36.     62.3538 .5
GRID     304            30.4285 65.2542 .5
GRID     305            24.6255 67.6579 .5
GRID     306            18.635  69.5467 .5
GRID     307            12.5027 70.9062 .5
GRID     308            6.27521 71.726  .5
GRID*    309                            3.55271-15      72.
*       .5
GRID     310            76.2089 6.66741 .5
GRID     311            75.3378 13.2841 .5
GRID     312            73.8933 19.7997 .5
GRID     313            71.8865 26.1645 .5
GRID     314            69.3325 32.3303 .5
GRID     315            66.251  38.25   .5
GRID     316            62.6651 43.8786 .5
GRID     317            58.6024 49.1733 .5
GRID     318            54.0937 54.0937 .5
GRID     319            49.1733 58.6024 .5
GRID     320            43.8786 62.6651 .5
GRID     321            38.25   66.251  .5
GRID     322            32.3303 69.3325 .5
GRID     323            26.1645 71.8865 .5
GRID     324            19.7997 73.8933 .5
GRID     325            13.2841 75.3378 .5
GRID     326            6.66741 76.2089 .5
GRID*    327                            7.99361-15      76.5
*       .5
GRID     328            80.6918 7.05962 .5
GRID     329            79.7694 14.0655 .5
GRID     330            78.24   20.9643 .5
GRID     331            76.1151 27.7036 .5
GRID     332            73.4109 34.2321 .5
GRID     333            70.1481 40.5    .5
GRID     334            66.3513 46.4597 .5
GRID     335            62.0496 52.0658 .5
GRID     336            57.2757 57.2757 .5
GRID     337            52.0658 62.0496 .5
GRID     338            46.4597 66.3513 .5
GRID     339            40.5    70.1481 .5
GRID     340            34.2321 73.4109 .5
GRID     341            27.7036 76.1151 .5
GRID     342            20.9643 78.24   .5
GRID     343            14.0655 79.7694 .5
GRID     344            7.05962 80.6918 .5
GRID*    345                            -1.33227-14     81.
*       .5
GRID     346            85.1746 7.45182 .5
GRID     347            84.2011 14.8469 .5
GRID     348            82.5867 22.129  .5
GRID     349            80.3437 29.2427 .5
GRID     350            77.4893 36.1339 .5
GRID     351            74.0452 42.75   .5
GRID     352            70.0375 49.0408 .5
GRID     353            65.4968 54.9583 .5
GRID     354            60.4576 60.4576 .5
GRID     355            54.9583 65.4968 .5
GRID     356            49.0408 70.0375 .5
GRID     357            42.75   74.0452 .5
GRID     358            36.1339 77.4893 .5
GRID     359            29.2427 80.3437 .5
GRID     360            22.129  82.5867 .5
GRID     361            14.8469 84.2011 .5
GRID     362            7.45182 85.1746 .5
GRID*    363                            3.55271-15      85.5
*       .5
GRID     364            89.6575 7.84402 .5
GRID     365            88.6327 15.6283 .5
GRID     366            86.9333 23.2937 .5
GRID     367            84.5723 30.7818 .5
GRID     368            81.5677 38.0356 .5
GRID     369            77.9423 45.     .5
GRID     370            73.7237 51.6219 .5
GRID     371            68.944  57.8509 .5
GRID     372            63.6396 63.6396 .5
GRID     373            57.8509 68.944  .5
GRID     374            51.6219 73.7237 .5
GRID     375            45.     77.9423 .5
GRID     376            38.0356 81.5677 .5
GRID     377            30.7818 84.5723 .5
GRID     378            23.2937 86.9333 .5
GRID     379            15.6283 88.6327 .5
GRID     380            7.84402 89.6575 .5
GRID*    381                            -2.66454-15     90.
*       .5
$ Loads for Load Case : Default
SPCADD   2       1       3
$ Displacement Constraints of Load Set : y=0
SPC1     1       246     1       THRU    21
$ Displacement Constraints of Load Set : x=0
SPC1     3       156     2       39      57      75      93      111     
         129     147     165     183     201     219     237     255     
         273     291     309     327     345     363     381
$ Deform Body Contact LBC set: blnk
BCBODY   7       3D      DEFORM  7       0
BSURF    7       19      20      21      22      23      24      25
         26      27      28      29      30      31      32      33
         34      35      36      37      38      39      40      41
         42      43      44      45      46      47      48      49
         50      51      52      53      54      55      56      57
         58      59      60      61      62      63      64      65
         66      67      68      69      70      71      72      73
         74      75      76      77      78      79      80      81
         82      83      84      85      86      87      88      89
         90      91      92      93      94      95      96      97
         98      99      100     101     102     103     104     105
         106     107     108     109     110     111     112     113
         114     115     116     117     118     119     120     121
         122     123     124     125     126     127     128     129
         130     131     132     133     134     135     136     137
         138     139     140     141     142     143     144     145
         146     147     148     149     150     151     152     153
         154     155     156     157     158     159     160     161
         162     163     164     165     166     167     168     169
         170     171     172     173     174     175     176     177
         178     179     180     181     182     183     184     185
         186     187     188     189     190     191     192     193
         194     195     196     197     198     199     200     201
         202     203     204     205     206     207     208     209
         210     211     212     213     214     215     216     217
         218     219     220     221     222     223     224     225
         226     227     228     229     230     231     232     233
         234     235     236     237     238     239     240     241
         242     243     244     245     246     247     248     249
         250     251     252     253     254     255     256     257
         258     259     260     261     262     263     264     265
         266     267     268     269     270     271     272     273
         274     275     276     277     278     279     280     281
         282     283     284     285     286     287     288     289
         290     291     292     293     294     295     296     297
         298     299     300     301     302     303     304     305
         306     307     308     309     310     311     312     313
         314     315     316     317     318     319     320     321
         322     323     324     325     326     327     328     329
         330     331     332     333     334     335     336     337
         338     339     340     341     342     343     344     345
         346     347     348     349     350     351     352     353
         354     355     356     357     358     359     360     361
         362     363     364     365     366     367     368     369
$ Rigid Body Contact LBC set: PUNCH
BCBODY   1       3D      RIGID           0               1       0
         0       0.      0.      0.      0.      0.      0.      40.
        RIGID   0       27      PUNCH
         NURBS   -7      13      4       4       50      50      0
                50.      0.     -9.93   50.      0.     -5.91385
                47.5817  0.     -2.2934843.8705  0.     -.756048
                42.6664  0.     -.25726241.3742  0.     -5.336-7
                40.07    0.     -5.736-749.9367 .723534 -9.93
                49.9367 .723534 -5.9138547.5215 .688469 -2.29348
                43.8149 .634836 -.75604842.6124 .617436 -.257262
                41.3218 .598709 -5.336-740.0193 .57984  -5.736-7
                49.8734 1.44707 -9.93   49.8734 1.44707 -5.91701
                47.4642 1.37717 -2.2947343.7594 1.26967 -.756048
                42.5574 1.2348  -.25685841.2696 1.19743 -5.336-7
                39.9685 1.15968 -5.736-749.8101 2.1706  -9.93
                49.8101 2.1706  -5.9170147.404  2.06575 -2.29473
                43.7038 1.90451 -.75604842.5034 1.8522  -.256858
                41.2172 1.79615 -5.336-739.9178 1.73952 -5.736-7
                49.7468 2.89414 -9.93   49.7468 2.89414 -5.91701
                47.3437 2.75433 -2.2947343.6483 2.53934 -.756048
                42.4494 2.46959 -.25685841.1649 2.39486 -5.336-7
                39.8671 2.31936 -5.736-749.6835 3.61767 -9.93
                49.6835 3.61767 -5.9180747.2845 3.44298 -2.29515
                43.5928 3.17418 -.75604842.3951 3.08697 -.256722
                41.1125 2.99358 -5.336-739.8164 2.8992  -5.736-7
                49.6202 4.34121 -9.93   49.6202 4.34121 -5.91807
                47.2242 4.13159 -2.2951543.5372 3.80901 -.756048
                42.3411 3.70436 -.25672241.0602 3.5923  -5.336-7
                39.7656 3.47904 -5.736-749.5569 5.06474 -9.93
                49.5569 5.06474 -5.9180747.164  4.8202  -2.29515
                43.4817 4.44385 -.75604842.287  4.32175 -.256722
                41.0078 4.19102 -5.336-739.7149 4.05888 -5.736-7
                49.4936 5.78827 -9.93   49.4936 5.78827 -5.91701
                47.1028 5.50872 -2.2947343.4261 5.07868 -.756048
                42.2333 4.93917 -.25685840.9553 4.78973 -5.336-7
                39.6642 4.63872 -5.736-749.4303 6.51181 -9.93
                49.4303 6.51181 -5.9170147.0425 6.19725 -2.29473
                43.3706 5.71352 -.75604842.1793 5.55659 -.256858
                40.903  5.38844 -5.336-739.6134 5.21856 -5.736-7
                49.367  7.23534 -9.93   49.367  7.23534 -5.91701
                46.9823 6.88577 -2.2947343.3151 6.34836 -.756048
                42.1253 6.174   -.25685840.8506 5.98715 -5.336-7
                39.5627 5.7984  -5.736-749.3037 7.95888 -9.93
                49.3037 7.95888 -5.9138546.919  7.57401 -2.29348
                43.2595 6.98319 -.75604842.0723 6.79151 -.257262
                40.798  6.58584 -5.336-739.512  6.37824 -5.736-7
                49.2404 8.68241 -9.93   49.2404 8.68241 -5.91385
                46.8588 8.26247 -2.2934843.204  7.61803 -.756048
                42.0182 7.40895 -.25726240.7456 7.18455 -5.336-7
                39.4613 6.95808 -5.736-7
                1.      1.      1.      1.      1.      1.      1.
                1.      1.      1.      1.      1.      1.      1.
                1.      1.      1.      1.      1.      1.      1.
                1.      1.      1.      1.      1.      1.      1.
                1.      1.      1.      1.      1.      1.      1.
                1.      1.      1.      1.      1.      1.      1.
                1.      1.      1.      1.      1.      1.      1.
                1.      1.      1.      1.      1.      1.      1.
                1.      1.      1.      1.      1.      1.      1.
                1.      1.      1.      1.      1.      1.      1.
                1.      1.      1.      1.      1.      1.      1.
                1.      1.      1.      1.      1.      1.      1.
                1.      1.      1.      1.      1.      1.      1.
                 0.      0.      0.      0.     .750192 .750192 .750192
                1.      1.      1.      1.       0.      0.      0.
                 0.     .250587 .250587 .250587 .50047  .50047  .50047
                .750117 .750117 .750117 1.      1.      1.      1.
         NURBS   -7      13      4       4       50      50      0
                49.2404 8.68241 -9.93   49.2404 8.68241 -5.91385
                46.8588 8.26247 -2.2934843.204  7.61803 -.756048
                42.0182 7.40895 -.25726240.7456 7.18455 -5.336-7
                39.4613 6.95808 -5.736-749.0524 9.38396 -9.93
                49.0524 9.38396 -5.9138546.6799 8.93002 -2.29348
                43.039  8.23357 -.75604841.8578 8.00763 -.257262
                40.5901 7.76507 -5.336-739.3106 7.52031 -5.736-7
                48.8644 10.0855 -9.93   48.8644 10.0855 -5.91701
                46.504  9.59832 -2.2947342.8741 8.84912 -.756048
                41.6965 8.60606 -.25685840.4347 8.34563 -5.336-7
                39.16   8.08253 -5.736-748.6765 10.7871 -9.93
                48.6765 10.7871 -5.9170146.3251 10.266  -2.29473
                42.7092 9.46466 -.75604841.5361 9.2047  -.256858
                40.2792 8.92616 -5.336-739.0093 8.64475 -5.736-7
                48.4885 11.4886 -9.93   48.4885 11.4886 -5.91701
                46.1462 10.9336 -2.2947342.5442 10.0802 -.756048
                41.3757 9.80334 -.25685840.1236 9.50668 -5.336-7
                38.8587 9.20697 -5.736-748.3005 12.1902 -9.93
                48.3005 12.1902 -5.9180745.9683 11.6015 -2.29515
                42.3793 10.6958 -.75604841.2149 10.4019 -.256722
                39.9681 10.0872 -5.336-738.708  9.76919 -5.736-7
                48.1125 12.8917 -9.93   48.1125 12.8917 -5.91807
                45.7894 12.2692 -2.2951542.2144 11.3113 -.756048
                41.0545 11.0005 -.25672239.8126 10.6678 -5.336-7
                38.5574 10.3314 -5.736-747.9245 13.5933 -9.93
                47.9245 13.5933 -5.9180745.6105 12.9369 -2.29515
                42.0494 11.9269 -.75604840.8941 11.5992 -.256722
                39.657  11.2483 -5.336-738.4067 10.8936 -5.736-7
                47.7366 14.2948 -9.93   47.7366 14.2948 -5.91701
                45.4306 13.6043 -2.2947341.8845 12.5424 -.756048
                40.734  12.1979 -.25685839.5014 11.8288 -5.336-7
                38.2561 11.4559 -5.736-747.5486 14.9964 -9.93
                47.5486 14.9964 -5.9170145.2517 14.2719 -2.29473
                41.7196 13.1579 -.75604840.5736 12.7965 -.256858
                39.3459 12.4093 -5.336-738.1054 12.0181 -5.736-7
                47.3606 15.6979 -9.93   47.3606 15.6979 -5.91701
                45.0728 14.9396 -2.2947341.5546 13.7735 -.756048
                40.4132 13.3952 -.25685839.1903 12.9898 -5.336-7
                37.9548 12.5803 -5.736-747.1726 16.3995 -9.93
                47.1726 16.3995 -5.9138544.891  15.6064 -2.29348
                41.3897 14.389  -.75604840.2538 13.9941 -.257262
                39.0346 13.5703 -5.336-737.8041 13.1425 -5.736-7
                46.9846 17.101  -9.93   46.9846 17.101  -5.91385
                44.7122 16.2739 -2.2934841.2248 15.0046 -.756048
                40.0933 14.5928 -.25726238.879  14.1508 -5.336-7
                37.6535 13.7048 -5.736-7
                1.      1.      1.      1.      1.      1.      1.
                1.      1.      1.      1.      1.      1.      1.
                1.      1.      1.      1.      1.      1.      1.
                1.      1.      1.      1.      1.      1.      1.
                1.      1.      1.      1.      1.      1.      1.
                1.      1.      1.      1.      1.      1.      1.
                1.      1.      1.      1.      1.      1.      1.
                1.      1.      1.      1.      1.      1.      1.
                1.      1.      1.      1.      1.      1.      1.
                1.      1.      1.      1.      1.      1.      1.
                1.      1.      1.      1.      1.      1.      1.
                1.      1.      1.      1.      1.      1.      1.
                1.      1.      1.      1.      1.      1.      1.
                 0.      0.      0.      0.     .750192 .750192 .750192
                1.      1.      1.      1.       0.      0.      0.
                 0.     .250587 .250587 .250587 .50047  .50047  .50047
                .750117 .750117 .750117 1.      1.      1.      1.
         NURBS   -7      13      4       4       50      50      12
                46.9846 17.101  -9.93   46.9846 17.101  -5.91385
                44.7122 16.2739 -2.2934841.2248 15.0046 -.756048
                40.0933 14.5928 -.25726238.879  14.1508 -5.336-7
                37.6535 13.7048 -5.736-746.6777 17.7593 -9.93
                46.6777 17.7593 -5.9138544.4201 16.9002 -2.29348
                40.9554 15.5821 -.75604839.8314 15.1545 -.257262
                38.625  14.6955 -5.336-737.4075 14.2323 -5.736-7
                46.3707 18.4175 -9.93   46.3707 18.4175 -5.91701
                44.1308 17.5278 -2.2947340.6861 16.1597 -.756048
                39.5686 15.7158 -.25685838.3712 15.2403 -5.336-7
                37.1615 14.7598 -5.736-746.0638 19.0758 -9.93
                46.0638 19.0758 -5.9170143.8386 18.1543 -2.29473
                40.4168 16.7372 -.75604839.3067 16.2775 -.256858
                38.1172 15.785  -5.336-736.9155 15.2873 -5.736-7
                45.7568 19.734  -9.93   45.7568 19.734  -5.91701
                43.5465 18.7807 -2.2947340.1475 17.3148 -.756048
                39.0447 16.8392 -.25685837.8632 16.3296 -5.336-7
                36.6695 15.8148 -5.736-745.4499 20.3923 -9.93
                45.4499 20.3923 -5.9180743.2553 19.4076 -2.29515
                39.8782 17.8924 -.75604838.7825 17.4008 -.256722
                37.6093 16.8744 -5.336-736.4236 16.3424 -5.736-7
                45.143  21.0505 -9.93   45.143  21.0505 -5.91807
                42.9632 20.0341 -2.2951539.6088 18.4699 -.756048
                38.5206 17.9625 -.25672237.3553 17.4191 -5.336-7
                36.1776 16.8699 -5.736-744.836  21.7088 -9.93
                44.836  21.7088 -5.9180742.6711 20.6605 -2.29515
                39.3395 19.0475 -.75604838.2587 18.5241 -.256722
                37.1013 17.9638 -5.336-735.9316 17.3974 -5.736-7
                44.5291 22.367  -9.93   44.5291 22.367  -5.91701
                42.378  21.2866 -2.2947339.0702 19.625  -.756048
                37.9971 19.086  -.25685836.8472 18.5084 -5.336-7
                35.6856 17.9249 -5.736-744.2221 23.0253 -9.93
                44.2221 23.0253 -5.9170142.0859 21.913  -2.29473
                38.8009 20.2026 -.75604837.7351 19.6477 -.256858
                36.5933 19.0531 -5.336-735.4396 18.4524 -5.736-7
                43.9152 23.6835 -9.93   43.9152 23.6835 -5.91701
                41.7938 22.5394 -2.2947338.5316 20.7801 -.756048
                37.4732 20.2094 -.25685836.3393 19.5978 -5.336-7
                35.1936 18.98   -5.736-743.6082 24.3418 -9.93
                43.6082 24.3418 -5.9138541.499  23.1645 -2.29348
                38.2623 21.3577 -.75604837.2122 20.7715 -.257262
                36.0851 20.1424 -5.336-734.9476 19.5075 -5.736-7
                43.3013 25.     -9.93   43.3013 25.     -5.91385
                41.207  23.7908 -2.2934837.9929 21.9352 -.756048
                36.9502 21.3332 -.25726235.8311 20.6871 -5.336-7
                34.7016 20.035  -5.736-7
                1.      1.      1.      1.      1.      1.      1.
                1.      1.      1.      1.      1.      1.      1.
                1.      1.      1.      1.      1.      1.      1.
                1.      1.      1.      1.      1.      1.      1.
                1.      1.      1.      1.      1.      1.      1.
                1.      1.      1.      1.      1.      1.      1.
                1.      1.      1.      1.      1.      1.      1.
                1.      1.      1.      1.      1.      1.      1.
                1.      1.      1.      1.      1.      1.      1.
                1.      1.      1.      1.      1.      1.      1.
                1.      1.      1.      1.      1.      1.      1.
                1.      1.      1.      1.      1.      1.      1.
                1.      1.      1.      1.      1.      1.      1.
                 0.      0.      0.      0.     .750192 .750192 .750192
                1.      1.      1.      1.       0.      0.      0.
                 0.     .250587 .250587 .250587 .50047  .50047  .50047
                .750117 .750117 .750117 1.      1.      1.      1.
                 9       2       2       50
                         0.     .50047
                         0.     .25059
                        1.      1.
                         0.      0.     1.      1.
                 9       2       2       50
                         0.     .25059
                         0.      0.
                        1.      1.
                         0.      0.     1.      1.
                 9       2       2       50
                         0.      0.
                        .75019   0.
                        1.      1.
                         0.      0.     1.      1.
                 9       2       2       50
                        .75019   0.
                        1.       0.
                        1.      1.
                         0.      0.     1.      1.
                 9       2       2       50
                        1.       0.
                        1.      .25059
                        1.      1.
                         0.      0.     1.      1.
                 9       2       2       50
                        1.      .25059
                        1.      .50047
                        1.      1.
                         0.      0.     1.      1.
                 9       2       2       50
                        1.      .50047
                        1.      .75012
                        1.      1.
                         0.      0.     1.      1.
                 9       2       2       50
                        1.      .75012
                        1.      1.
                        1.      1.
                         0.      0.     1.      1.
                 9       2       2       50
                        1.      1.
                        .75019  1.
                        1.      1.
                         0.      0.     1.      1.
                 9       2       2       50
                        .75019  1.
                         0.     1.
                        1.      1.
                         0.      0.     1.      1.
                 9       2       2       50
                         0.     1.
                         0.     .75012
                        1.      1.
                         0.      0.     1.      1.
                 9       2       2       50
                         0.     .75012
                         0.     .50047
                        1.      1.
                         0.      0.     1.      1.
         NURBS   -7      13      4       4       50      50      0
                43.3013 25.     -9.93   43.3013 25.     -5.91385
                41.207  23.7908 -2.2934837.9929 21.9352 -.756048
                36.9502 21.3332 -.25726235.8311 20.6871 -5.336-7
                34.7016 20.035  -5.736-742.8847 25.595  -9.93
                42.8847 25.595  -5.9138540.8106 24.357  -2.29348
                37.6274 22.4572 -.75604836.5947 21.8409 -.257262
                35.4864 21.1794 -5.336-734.3678 20.5118 -5.736-7
                42.4681 26.1899 -9.93   42.4681 26.1899 -5.91701
                40.4166 24.9248 -2.2947337.2619 22.9793 -.756048
                36.2384 22.3481 -.25685835.1418 21.6718 -5.336-7
                34.0339 20.9886 -5.736-742.0515 26.7849 -9.93
                42.0515 26.7849 -5.9170140.0202 25.491  -2.29473
                36.8964 23.5013 -.75604835.8829 22.8558 -.256858
                34.7971 22.1641 -5.336-733.7001 21.4654 -5.736-7
                41.6349 27.3798 -9.93   41.6349 27.3798 -5.91701
                39.6237 26.0572 -2.2947336.5309 24.0233 -.756048
                35.5275 23.3634 -.25685834.4524 22.6564 -5.336-7
                33.3662 21.9422 -5.736-741.2183 27.9747 -9.93
                41.2183 27.9747 -5.9180739.2281 26.624  -2.29515
                36.1653 24.5453 -.75604835.1717 23.8709 -.256722
                34.1077 23.1488 -5.336-733.0324 22.419  -5.736-7
                40.8018 28.5697 -9.93   40.8018 28.5697 -5.91807
                38.8316 27.1902 -2.2951535.7998 25.0673 -.756048
                34.8162 24.3786 -.25672233.763  23.6411 -5.336-7
                32.6985 22.8958 -5.736-740.3852 29.1646 -9.93
                40.3852 29.1646 -5.9180738.4351 27.7564 -2.29515
                35.4343 25.5893 -.75604834.4608 24.8863 -.256722
                33.4183 24.1334 -5.336-732.3647 23.3725 -5.736-7
                39.9686 29.7596 -9.93   39.9686 29.7596 -5.91701
                38.0378 28.3221 -2.2947335.0688 26.1113 -.756048
                34.1056 25.3941 -.25685833.0735 24.6257 -5.336-7
                32.0308 23.8493 -5.736-739.552  30.3545 -9.93
                39.552  30.3545 -5.9170137.6414 28.8882 -2.29473
                34.7033 26.6334 -.75604833.7501 25.9018 -.256858
                32.7288 25.118  -5.336-731.697  24.3261 -5.736-7
                39.1354 30.9495 -9.93   39.1354 30.9495 -5.91701
                37.245  29.4544 -2.2947334.3378 27.1554 -.756048
                33.3946 26.4095 -.25685832.3841 25.6103 -5.336-7
                31.3631 24.8029 -5.736-738.7188 31.5444 -9.93
                38.7188 31.5444 -5.9138536.8461 30.0188 -2.29348
                33.9722 27.6774 -.75604833.0399 26.9178 -.257262
                32.0392 26.1025 -5.336-731.0293 25.2797 -5.736-7
                38.3022 32.1394 -9.93   38.3022 32.1394 -5.91385
                36.4497 30.5849 -2.2934833.6067 28.1994 -.756048
                32.6844 27.4255 -.25726231.6945 26.5948 -5.336-7
                30.6954 25.7565 -5.736-7
                1.      1.      1.      1.      1.      1.      1.
                1.      1.      1.      1.      1.      1.      1.
                1.      1.      1.      1.      1.      1.      1.
                1.      1.      1.      1.      1.      1.      1.
                1.      1.      1.      1.      1.      1.      1.
                1.      1.      1.      1.      1.      1.      1.
                1.      1.      1.      1.      1.      1.      1.
                1.      1.      1.      1.      1.      1.      1.
                1.      1.      1.      1.      1.      1.      1.
                1.      1.      1.      1.      1.      1.      1.
                1.      1.      1.      1.      1.      1.      1.
                1.      1.      1.      1.      1.      1.      1.
                1.      1.      1.      1.      1.      1.      1.
                 0.      0.      0.      0.     .750192 .750192 .750192
                1.      1.      1.      1.       0.      0.      0.
                 0.     .250587 .250587 .250587 .50047  .50047  .50047
                .750117 .750117 .750117 1.      1.      1.      1.
         NURBS   -7      16      4       4       50      50      12
                38.3391 32.1025 -9.93   38.3391 32.1025 -5.91385
                36.4848 30.5498 -2.2934833.6391 28.167  -.756049
                32.7159 27.394  -.25726231.725  26.5643 -5.336-7
                30.725  25.7269 -5.736-738.3268 32.1148 -9.93
                38.3268 32.1148 -5.9138536.4731 30.5615 -2.29348
                33.6283 28.1778 -.75604932.7054 27.4045 -.257262
                31.7148 26.5745 -5.336-730.7151 25.7368 -5.736-7
                38.3145 32.1271 -9.93   38.3145 32.1271 -5.91385
                36.4614 30.5732 -2.2934833.6175 28.1886 -.756049
                32.6949 27.415  -.25726231.7046 26.5846 -5.336-7
                30.7053 25.7466 -5.736-738.3022 32.1394 -9.93
                38.3022 32.1394 -5.9138536.4497 30.5849 -2.29348
                33.6067 28.1994 -.75604932.6844 27.4255 -.257262
                31.6945 26.5948 -5.336-730.6954 25.7565 -5.736-7
                37.7887 32.653  -9.93   37.7887 32.653  -5.91385
                35.961  31.0736 -2.2934833.1561 28.65   -.756049
                32.2461 27.8637 -.25726231.2695 27.0198 -5.336-7
                30.2838 26.1681 -5.736-737.2751 33.1665 -9.93
                37.2751 33.1665 -5.9170135.4745 31.5644 -2.29473
                32.7055 29.1006 -.75604931.8072 28.3013 -.256858
                30.8447 27.4449 -5.336-729.8723 26.5797 -5.736-7
                36.7615 33.6801 -9.93   36.7615 33.6801 -5.91701
                34.9857 32.0531 -2.2947332.2549 29.5512 -.756049
                31.3689 28.7395 -.25685830.4197 27.8699 -5.336-7
                29.4607 26.9912 -5.736-736.2479 34.1937 -9.93
                36.2479 34.1937 -5.9170134.497  32.5419 -2.29473
                31.8043 30.0018 -.75604930.9307 29.1778 -.256858
                29.9947 28.2948 -5.336-729.0491 27.4028 -5.736-7
                35.7344 34.7072 -9.93   35.7344 34.7072 -5.91807
                34.0089 33.0314 -2.2951531.3537 30.4524 -.756049
                30.4922 29.6158 -.25672229.5698 28.7199 -5.336-7
                28.6375 27.8144 -5.736-735.2208 35.2208 -9.93
                35.2208 35.2208 -5.9180733.5201 33.5201 -2.29515
                30.9031 30.9031 -.75604930.054  30.054  -.256722
                29.1448 29.1448 -5.336-728.226  28.226  -5.736-7
                34.7072 35.7344 -9.93   34.7072 35.7344 -5.91807
                33.0314 34.0089 -2.2951530.4524 31.3537 -.756049
                29.6158 30.4922 -.25672228.7199 29.5698 -5.336-7
                27.8144 28.6375 -5.736-734.1937 36.2479 -9.93
                34.1937 36.2479 -5.9170132.5419 34.497  -2.29473
                30.0018 31.8043 -.75604929.1778 30.9307 -.256858
                28.2948 29.9947 -5.336-727.4028 29.0491 -5.736-7
                33.6801 36.7615 -9.93   33.6801 36.7615 -5.91701
                32.0531 34.9857 -2.2947329.5512 32.2549 -.756049
                28.7395 31.3689 -.25685827.8699 30.4197 -5.336-7
                26.9912 29.4607 -5.736-733.1665 37.2751 -9.93
                33.1665 37.2751 -5.9170131.5644 35.4744 -2.29473
                29.1006 32.7055 -.75604928.3013 31.8072 -.256858
                27.4449 30.8447 -5.336-726.5797 29.8723 -5.736-7
                32.653  37.7887 -9.93   32.653  37.7887 -5.91385
                31.0736 35.961  -2.2934828.65   33.1561 -.756049
                27.8637 32.2461 -.25726327.0198 31.2695 -5.336-7
                26.1681 30.2838 -5.736-732.1394 38.3022 -9.93
                32.1394 38.3022 -5.9138530.5849 36.4497 -2.29348
                28.1994 33.6067 -.75604927.4255 32.6844 -.257263
                26.5948 31.6945 -5.336-725.7565 30.6954 -5.736-7
                1.      1.      1.      1.      1.      1.      1.
                1.      1.      1.      1.      1.      1.      1.
                1.      1.      1.      1.      1.      1.      1.
                1.      1.      1.      1.      1.      1.      1.
                1.      1.      1.      1.      1.      1.      1.
                1.      1.      1.      1.      1.      1.      1.
                1.      1.      1.      1.      1.      1.      1.
                1.      1.      1.      1.      1.      1.      1.
                1.      1.      1.      1.      1.      1.      1.
                1.      1.      1.      1.      1.      1.      1.
                1.      1.      1.      1.      1.      1.      1.
                1.      1.      1.      1.      1.      1.      1.
                1.      1.      1.      1.      1.      1.      1.
                1.      1.      1.      1.      1.      1.      1.
                1.      1.      1.      1.      1.      1.      1.
                1.      1.      1.      1.      1.      1.      1.
                 0.      0.      0.      0.     .750192 .750192 .750192
                1.      1.      1.      1.       0.      0.      0.
                 0.     .0059644.0059644.0059644.255057 .255057 .255057
                .503449 .503449 .503449 .751608 .751608 .751608 1.
                1.      1.      1.
                 9       2       2       50
                         0.     .50345
                         0.     .25506
                        1.      1.
                         0.      0.     1.      1.
                 9       2       2       50
                         0.     .25506
                         0.     .00596
                        1.      1.
                         0.      0.     1.      1.
                 9       2       2       50
                         0.     .00596
                        .75019  .00596
                        1.      1.
                         0.      0.     1.      1.
                 9       2       2       50
                        .75019  .00596
                        1.      .00596
                        1.      1.
                         0.      0.     1.      1.
                 9       2       2       50
                        1.      .00596
                        1.      .25506
                        1.      1.
                         0.      0.     1.      1.
                 9       2       2       50
                        1.      .25506
                        1.      .50345
                        1.      1.
                         0.      0.     1.      1.
                 9       2       2       50
                        1.      .50345
                        1.      .75161
                        1.      1.
                         0.      0.     1.      1.
                 9       2       2       50
                        1.      .75161
                        1.      1.
                        1.      1.
                         0.      0.     1.      1.
                 9       2       2       50
                        1.      1.
                        .75019  1.
                        1.      1.
                         0.      0.     1.      1.
                 9       2       2       50
                        .75019  1.
                         0.     1.
                        1.      1.
                         0.      0.     1.      1.
                 9       2       2       50
                         0.     1.
                         0.     .75161
                        1.      1.
                         0.      0.     1.      1.
                 9       2       2       50
                         0.     .75161
                         0.     .50345
                        1.      1.
                         0.      0.     1.      1.
         NURBS   -7      13      4       4       50      50      12
                32.1394 38.3022 -9.93   32.1394 38.3022 -5.91385
                30.5849 36.4497 -2.2934828.1994 33.6067 -.756049
                27.4255 32.6844 -.25726226.5948 31.6945 -5.336-7
                25.7565 30.6954 -5.736-731.5444 38.7188 -9.93
                31.5444 38.7188 -5.9138530.0188 36.8461 -2.29348
                27.6774 33.9722 -.75604926.9178 33.0399 -.257262
                26.1025 32.0392 -5.336-725.2797 31.0293 -5.736-7
                30.9495 39.1354 -9.93   30.9495 39.1354 -5.91701
                29.4544 37.2449 -2.2947327.1554 34.3378 -.756049
                26.4095 33.3946 -.25685825.6103 32.3841 -5.336-7
                24.8029 31.3631 -5.736-730.3545 39.552  -9.93
                30.3545 39.552  -5.9170128.8882 37.6414 -2.29473
                26.6334 34.7033 -.75604925.9018 33.7501 -.256858
                25.118  32.7288 -5.336-724.3261 31.697  -5.736-7
                29.7596 39.9686 -9.93   29.7596 39.9686 -5.91701
                28.322  38.0379 -2.2947326.1113 35.0688 -.756049
                25.3941 34.1056 -.25685824.6257 33.0735 -5.336-7
                23.8493 32.0308 -5.736-729.1646 40.3852 -9.93
                29.1646 40.3852 -5.9180727.7564 38.4351 -2.29515
                25.5893 35.4343 -.75604924.8863 34.4608 -.256722
                24.1334 33.4183 -5.336-723.3725 32.3647 -5.736-7
                28.5697 40.8018 -9.93   28.5697 40.8018 -5.91807
                27.1902 38.8316 -2.2951525.0673 35.7998 -.756049
                24.3786 34.8162 -.25672223.6411 33.763  -5.336-7
                22.8958 32.6985 -5.736-727.9747 41.2183 -9.93
                27.9747 41.2183 -5.9180726.624  39.2281 -2.29515
                24.5453 36.1653 -.75604923.8709 35.1717 -.256722
                23.1488 34.1077 -5.336-722.419  33.0324 -5.736-7
                27.3798 41.6349 -9.93   27.3798 41.6349 -5.91701
                26.0571 39.6237 -2.2947324.0233 36.5309 -.756049
                23.3635 35.5275 -.25685822.6564 34.4524 -5.336-7
                21.9422 33.3662 -5.736-726.7849 42.0515 -9.93
                26.7849 42.0515 -5.9170125.491  40.0202 -2.29473
                23.5013 36.8964 -.75604922.8558 35.8829 -.256858
                22.1641 34.7971 -5.336-721.4654 33.7001 -5.736-7
                26.1899 42.4681 -9.93   26.1899 42.4681 -5.91701
                24.9248 40.4166 -2.2947322.9793 37.2619 -.756049
                22.3481 36.2384 -.25685821.6718 35.1418 -5.336-7
                20.9886 34.0339 -5.736-725.595  42.8847 -9.93
                25.595  42.8847 -5.9138524.357  40.8106 -2.29348
                22.4572 37.6274 -.75604921.8409 36.5947 -.257262
                21.1794 35.4864 -5.336-720.5118 34.3678 -5.736-7
                25.     43.3013 -9.93   25.     43.3013 -5.91385
                23.7908 41.207  -2.2934821.9352 37.9929 -.756049
                21.3332 36.9502 -.25726220.6871 35.8311 -5.336-7
                20.035  34.7016 -5.736-7
                1.      1.      1.      1.      1.      1.      1.
                1.      1.      1.      1.      1.      1.      1.
                1.      1.      1.      1.      1.      1.      1.
                1.      1.      1.      1.      1.      1.      1.
                1.      1.      1.      1.      1.      1.      1.
                1.      1.      1.      1.      1.      1.      1.
                1.      1.      1.      1.      1.      1.      1.
                1.      1.      1.      1.      1.      1.      1.
                1.      1.      1.      1.      1.      1.      1.
                1.      1.      1.      1.      1.      1.      1.
                1.      1.      1.      1.      1.      1.      1.
                1.      1.      1.      1.      1.      1.      1.
                1.      1.      1.      1.      1.      1.      1.
                 0.      0.      0.      0.     .750192 .750192 .750192
                1.      1.      1.      1.       0.      0.      0.
                 0.     .250587 .250587 .250587 .50047  .50047  .50047
                .750117 .750117 .750117 1.      1.      1.      1.
                 9       2       2       50
                         0.     .50047
                         0.     .25059
                        1.      1.
                         0.      0.     1.      1.
                 9       2       2       50
                         0.     .25059
                         0.      0.
                        1.      1.
                         0.      0.     1.      1.
                 9       2       2       50
                         0.      0.
                        .75019   0.
                        1.      1.
                         0.      0.     1.      1.
                 9       2       2       50
                        .75019   0.
                        1.       0.
                        1.      1.
                         0.      0.     1.      1.
                 9       2       2       50
                        1.       0.
                        1.      .25059
                        1.      1.
                         0.      0.     1.      1.
                 9       2       2       50
                        1.      .25059
                        1.      .50047
                        1.      1.
                         0.      0.     1.      1.
                 9       2       2       50
                        1.      .50047
                        1.      .75012
                        1.      1.
                         0.      0.     1.      1.
                 9       2       2       50
                        1.      .75012
                        1.      1.
                        1.      1.
                         0.      0.     1.      1.
                 9       2       2       50
                        1.      1.
                        .75019  1.
                        1.      1.
                         0.      0.     1.      1.
                 9       2       2       50
                        .75019  1.
                         0.     1.
                        1.      1.
                         0.      0.     1.      1.
                 9       2       2       50
                         0.     1.
                         0.     .75012
                        1.      1.
                         0.      0.     1.      1.
                 9       2       2       50
                         0.     .75012
                         0.     .50047
                        1.      1.
                         0.      0.     1.      1.
         NURBS   -7      13      4       4       50      50      0
                25.     43.3013 -9.93   25.     43.3013 -5.91385
                23.7908 41.207  -2.2934821.9352 37.9929 -.756048
                21.3332 36.9502 -.25726220.6871 35.8311 -5.336-7
                20.035  34.7016 -5.736-724.3418 43.6082 -9.93
                24.3418 43.6082 -5.9138523.1645 41.499  -2.29348
                21.3577 38.2623 -.75604820.7715 37.2122 -.257262
                20.1424 36.0851 -5.336-719.5075 34.9476 -5.736-7
                23.6835 43.9152 -9.93   23.6835 43.9152 -5.91701
                22.5395 41.7938 -2.2947320.7801 38.5316 -.756048
                20.2094 37.4732 -.25685819.5978 36.3393 -5.336-7
                18.98   35.1936 -5.736-723.0253 44.2221 -9.93
                23.0253 44.2221 -5.9170121.913  42.0859 -2.29473
                20.2026 38.8009 -.75604819.6477 37.7351 -.256858
                19.0531 36.5933 -5.336-718.4524 35.4396 -5.736-7
                22.367  44.5291 -9.93   22.367  44.5291 -5.91701
                21.2865 42.378  -2.2947319.625  39.0702 -.756048
                19.086  37.9971 -.25685818.5084 36.8472 -5.336-7
                17.9249 35.6856 -5.736-721.7088 44.836  -9.93
                21.7088 44.836  -5.9180720.6605 42.6711 -2.29515
                19.0475 39.3395 -.75604818.5241 38.2587 -.256722
                17.9638 37.1013 -5.336-717.3974 35.9316 -5.736-7
                21.0505 45.143  -9.93   21.0505 45.143  -5.91807
                20.0341 42.9632 -2.2951518.4699 39.6088 -.756048
                17.9625 38.5206 -.25672217.4191 37.3553 -5.336-7
                16.8699 36.1776 -5.736-720.3923 45.4499 -9.93
                20.3923 45.4499 -5.9180719.4076 43.2553 -2.29515
                17.8924 39.8782 -.75604817.4008 38.7825 -.256722
                16.8744 37.6093 -5.336-716.3424 36.4236 -5.736-7
                19.734  45.7568 -9.93   19.734  45.7568 -5.91701
                18.7807 43.5465 -2.2947317.3148 40.1475 -.756048
                16.8392 39.0447 -.25685816.3296 37.8632 -5.336-7
                15.8148 36.6695 -5.736-719.0758 46.0638 -9.93
                19.0758 46.0638 -5.9170118.1543 43.8386 -2.29473
                16.7372 40.4168 -.75604816.2775 39.3067 -.256858
                15.785  38.1172 -5.336-715.2873 36.9155 -5.736-7
                18.4175 46.3707 -9.93   18.4175 46.3707 -5.91701
                17.5279 44.1307 -2.2947316.1597 40.6861 -.756048
                15.7158 39.5686 -.25685815.2403 38.3712 -5.336-7
                14.7598 37.1615 -5.736-717.7593 46.6777 -9.93
                17.7593 46.6777 -5.9138516.9002 44.4201 -2.29348
                15.5821 40.9554 -.75604815.1545 39.8314 -.257262
                14.6955 38.625  -5.336-714.2323 37.4075 -5.736-7
                17.101  46.9846 -9.93   17.101  46.9846 -5.91385
                16.2739 44.7122 -2.2934815.0046 41.2248 -.756048
                14.5928 40.0933 -.25726214.1508 38.879  -5.336-7
                13.7048 37.6535 -5.736-7
                1.      1.      1.      1.      1.      1.      1.
                1.      1.      1.      1.      1.      1.      1.
                1.      1.      1.      1.      1.      1.      1.
                1.      1.      1.      1.      1.      1.      1.
                1.      1.      1.      1.      1.      1.      1.
                1.      1.      1.      1.      1.      1.      1.
                1.      1.      1.      1.      1.      1.      1.
                1.      1.      1.      1.      1.      1.      1.
                1.      1.      1.      1.      1.      1.      1.
                1.      1.      1.      1.      1.      1.      1.
                1.      1.      1.      1.      1.      1.      1.
                1.      1.      1.      1.      1.      1.      1.
                1.      1.      1.      1.      1.      1.      1.
                 0.      0.      0.      0.     .750192 .750192 .750192
                1.      1.      1.      1.       0.      0.      0.
                 0.     .250587 .250587 .250587 .50047  .50047  .50047
                .750117 .750117 .750117 1.      1.      1.      1.
         NURBS   -7      16      4       4       50      50      12
                17.1514 46.9711 -9.93   17.1514 46.9711 -5.91385
                16.3219 44.6993 -2.2934815.0488 41.2129 -.756048
                14.6358 40.0818 -.25726214.1925 38.8678 -5.336-7
                13.7451 37.6427 -5.736-717.1346 46.9756 -9.93
                17.1346 46.9756 -5.9138516.3059 44.7036 -2.29348
                15.0341 41.2169 -.75604814.6215 40.0857 -.257262
                14.1786 38.8716 -5.336-713.7317 37.6463 -5.736-7
                17.1178 46.9801 -9.93   17.1178 46.9801 -5.91385
                16.2899 44.7079 -2.2934815.0193 41.2208 -.756048
                14.6071 40.0895 -.25726214.1647 38.8753 -5.336-7
                13.7182 37.6499 -5.736-717.101  46.9846 -9.93
                17.101  46.9846 -5.9138516.2739 44.7122 -2.29348
                15.0046 41.2248 -.75604814.5928 40.0933 -.257262
                14.1508 38.879  -5.336-713.7048 37.6535 -5.736-7
                16.3995 47.1726 -9.93   16.3995 47.1726 -5.91385
                15.6063 44.891  -2.2934814.389  41.3897 -.756048
                13.9941 40.2538 -.25726213.5703 39.0346 -5.336-7
                13.1425 37.8041 -5.736-715.6979 47.3606 -9.93
                15.6979 47.3606 -5.9170114.9396 45.0728 -2.29473
                13.7735 41.5546 -.75604813.3952 40.4132 -.256858
                12.9898 39.1903 -5.336-712.5803 37.9548 -5.736-7
                14.9964 47.5486 -9.93   14.9964 47.5486 -5.91701
                14.2719 45.2517 -2.2947313.1579 41.7196 -.756048
                12.7965 40.5736 -.25685812.4093 39.3459 -5.336-7
                12.0181 38.1054 -5.736-714.2948 47.7366 -9.93
                14.2948 47.7366 -5.9170113.6043 45.4306 -2.29473
                12.5424 41.8845 -.75604812.1979 40.734  -.256858
                11.8288 39.5014 -5.336-711.4559 38.2561 -5.736-7
                13.5933 47.9245 -9.93   13.5933 47.9245 -5.91807
                12.9369 45.6105 -2.2951511.9269 42.0494 -.756048
                11.5992 40.8941 -.25672211.2483 39.657  -5.336-7
                10.8936 38.4067 -5.736-712.8917 48.1125 -9.93
                12.8917 48.1125 -5.9180712.2692 45.7894 -2.29515
                11.3113 42.2144 -.75604811.0005 41.0545 -.256722
                10.6678 39.8126 -5.336-710.3314 38.5574 -5.736-7
                12.1902 48.3005 -9.93   12.1902 48.3005 -5.91807
                11.6015 45.9683 -2.2951510.6958 42.3793 -.756048
                10.4019 41.2149 -.25672210.0872 39.9681 -5.336-7
                9.76919 38.708  -5.736-711.4886 48.4885 -9.93
                11.4886 48.4885 -5.9170110.9336 46.1462 -2.29473
                10.0802 42.5442 -.7560489.80335 41.3757 -.256858
                9.50668 40.1236 -5.336-79.20697 38.8587 -5.736-7
                10.7871 48.6765 -9.93   10.7871 48.6765 -5.91701
                10.266  46.3251 -2.294739.46466 42.7092 -.756048
                9.2047  41.5361 -.2568588.92616 40.2792 -5.336-7
                8.64475 39.0093 -5.736-710.0855 48.8644 -9.93
                10.0855 48.8644 -5.917019.59837 46.504  -2.29473
                8.84912 42.8741 -.7560488.60604 41.6965 -.256858
                8.34564 40.4347 -5.336-78.08253 39.16   -5.736-7
                9.38396 49.0524 -9.93   9.38396 49.0524 -5.91385
                8.93002 46.6799 -2.293488.23357 43.039  -.756048
                8.00762 41.8578 -.2572627.76507 40.5901 -5.336-7
                7.5203  39.3106 -5.736-78.68241 49.2404 -9.93
                8.68241 49.2404 -5.913858.26247 46.8588 -2.29348
                7.61803 43.204  -.7560487.40895 42.0182 -.257262
                7.18455 40.7456 -5.336-76.95808 39.4613 -5.736-7
                1.      1.      1.      1.      1.      1.      1.
                1.      1.      1.      1.      1.      1.      1.
                1.      1.      1.      1.      1.      1.      1.
                1.      1.      1.      1.      1.      1.      1.
                1.      1.      1.      1.      1.      1.      1.
                1.      1.      1.      1.      1.      1.      1.
                1.      1.      1.      1.      1.      1.      1.
                1.      1.      1.      1.      1.      1.      1.
                1.      1.      1.      1.      1.      1.      1.
                1.      1.      1.      1.      1.      1.      1.
                1.      1.      1.      1.      1.      1.      1.
                1.      1.      1.      1.      1.      1.      1.
                1.      1.      1.      1.      1.      1.      1.
                1.      1.      1.      1.      1.      1.      1.
                1.      1.      1.      1.      1.      1.      1.
                1.      1.      1.      1.      1.      1.      1.
                 0.      0.      0.      0.     .750192 .750192 .750192
                1.      1.      1.      1.       0.      0.      0.
                 0.     .0059643.0059643.0059643.255057 .255057 .255057
                .503449 .503449 .503449 .751608 .751608 .751608 1.
                1.      1.      1.
                 9       2       2       50
                         0.     .50345
                         0.     .25506
                        1.      1.
                         0.      0.     1.      1.
                 9       2       2       50
                         0.     .25506
                         0.     .00596
                        1.      1.
                         0.      0.     1.      1.
                 9       2       2       50
                         0.     .00596
                        .75019  .00596
                        1.      1.
                         0.      0.     1.      1.
                 9       2       2       50
                        .75019  .00596
                        1.      .00596
                        1.      1.
                         0.      0.     1.      1.
                 9       2       2       50
                        1.      .00596
                        1.      .25506
                        1.      1.
                         0.      0.     1.      1.
                 9       2       2       50
                        1.      .25506
                        1.      .50345
                        1.      1.
                         0.      0.     1.      1.
                 9       2       2       50
                        1.      .50345
                        1.      .75161
                        1.      1.
                         0.      0.     1.      1.
                 9       2       2       50
                        1.      .75161
                        1.      1.
                        1.      1.
                         0.      0.     1.      1.
                 9       2       2       50
                        1.      1.
                        .75019  1.
                        1.      1.
                         0.      0.     1.      1.
                 9       2       2       50
                        .75019  1.
                         0.     1.
                        1.      1.
                         0.      0.     1.      1.
                 9       2       2       50
                         0.     1.
                         0.     .75161
                        1.      1.
                         0.      0.     1.      1.
                 9       2       2       50
                         0.     .75161
                         0.     .50345
                        1.      1.
                         0.      0.     1.      1.
         NURBS   -10     13      4       4       50      50      12
                8.68241 49.2404 -9.93   8.68241 49.2404 -5.91385
                8.26247 46.8588 -2.293487.61803 43.204  -.756048
                7.40895 42.0182 -.2572627.18455 40.7456 -5.336-7
                6.95808 39.4613 -5.736-76.95808 39.4612 -5.736-7
                6.95808 39.4612 -5.736-76.95808 39.4612 -5.736-7
                7.95888 49.3037 -9.93   7.95888 49.3037 -5.91385
                7.57401 46.919  -2.293486.98319 43.2595 -.756048
                6.79151 42.0723 -.2572626.58584 40.798  -5.336-7
                6.37824 39.512  -5.736-76.37824 39.512  -5.736-7
                6.37824 39.512  -5.736-76.37824 39.5119 -5.736-7
                7.23534 49.367  -9.93   7.23534 49.367  -5.91701
                6.88583 46.9823 -2.294736.34836 43.3151 -.756048
                6.17398 42.1253 -.2568585.98716 40.8506 -5.336-7
                5.7984  39.5627 -5.736-75.7984  39.5627 -5.736-7
                5.7984  39.5627 -5.736-75.7984  39.5627 -5.736-7
                6.51181 49.4303 -9.93   6.51181 49.4303 -5.91701
                6.19725 47.0425 -2.294735.71352 43.3706 -.756048
                5.55659 42.1793 -.2568585.38844 40.903  -5.336-7
                5.21856 39.6134 -5.736-75.21856 39.6134 -5.736-7
                5.21856 39.6134 -5.736-75.21856 39.6134 -5.736-7
                5.78827 49.4936 -9.93   5.78827 49.4936 -5.91701
                5.50866 47.1028 -2.294735.07868 43.4261 -.756048
                4.93919 42.2333 -.2568584.78972 40.9553 -5.336-7
                4.63872 39.6642 -5.736-74.63872 39.6642 -5.736-7
                4.63872 39.6641 -5.736-74.63872 39.6641 -5.736-7
                5.06474 49.5569 -9.93   5.06474 49.5569 -5.91807
                4.8202  47.164  -2.295154.44385 43.4817 -.756048
                4.32175 42.287  -.2567224.19102 41.0078 -5.336-7
                4.05888 39.7149 -5.736-74.05888 39.7149 -5.736-7
                4.05888 39.7149 -5.736-74.05888 39.7149 -5.736-7
                4.34121 49.6202 -9.93   4.34121 49.6202 -5.91807
                4.13159 47.2242 -2.295153.80901 43.5372 -.756048
                3.70436 42.3411 -.2567223.5923  41.0602 -5.336-7
                3.47904 39.7656 -5.736-73.47904 39.7656 -5.736-7
                3.47904 39.7656 -5.736-73.47904 39.7656 -5.736-7
                3.61767 49.6835 -9.93   3.61767 49.6835 -5.91807
                3.44298 47.2845 -2.295153.17418 43.5928 -.756048
                3.08697 42.3951 -.2567222.99358 41.1125 -5.336-7
                2.8992  39.8164 -5.736-72.8992  39.8163 -5.736-7
                2.8992  39.8163 -5.736-72.8992  39.8163 -5.736-7
                2.89414 49.7468 -9.93   2.89414 49.7468 -5.91701
                2.75427 47.3437 -2.294732.53934 43.6483 -.756048
                2.46961 42.4494 -.2568582.39486 41.1649 -5.336-7
                2.31936 39.8671 -5.736-72.31936 39.8671 -5.736-7
                2.31936 39.8671 -5.736-72.31936 39.8671 -5.736-7
                2.1706  49.8101 -9.93   2.1706  49.8101 -5.91701
                2.06575 47.404  -2.294731.90451 43.7038 -.756048
                1.8522  42.5034 -.2568581.79615 41.2172 -5.336-7
                1.73952 39.9178 -5.736-71.73952 39.9178 -5.736-7
                1.73952 39.9178 -5.736-71.73952 39.9178 -5.736-7
                1.44707 49.8734 -9.93   1.44707 49.8734 -5.91701
                1.37722 47.4642 -2.294731.26967 43.7594 -.756048
                1.23478 42.5574 -.2568581.19744 41.2696 -5.336-7
                1.15968 39.9685 -5.736-71.15968 39.9685 -5.736-7
                1.15968 39.9685 -5.736-71.15968 39.9685 -5.736-7
                .723534 49.9367 -9.93   .723534 49.9367 -5.91385
                .688469 47.5215 -2.29348.634836 43.8149 -.756048
                .617436 42.6124 -.257262.598709 41.3218 -5.336-7
                .57984  40.0193 -5.736-7.57984  40.0193 -5.736-7
                .57984  40.0193 -5.736-7.57984  40.0192 -5.736-7
                 0.     50.     -9.93    0.     50.     -5.91385
                 0.     47.5817 -2.29348 0.     43.8705 -.756048
                 0.     42.6664 -.257262 0.     41.3742 -5.336-7
                 0.     40.07   -5.736-7 0.     40.07   -5.736-7
                 0.     40.07   -5.736-7 0.     40.07   -5.736-7
                1.      1.      1.      1.      1.      1.      1.
                1.      1.      1.      1.      1.      1.      1.
                1.      1.      1.      1.      1.      1.      1.
                1.      1.      1.      1.      1.      1.      1.
                1.      1.      1.      1.      1.      1.      1.
                1.      1.      1.      1.      1.      1.      1.
                1.      1.      1.      1.      1.      1.      1.
                1.      1.      1.      1.      1.      1.      1.
                1.      1.      1.      1.      1.      1.      1.
                1.      1.      1.      1.      1.      1.      1.
                1.      1.      1.      1.      1.      1.      1.
                1.      1.      1.      1.      1.      1.      1.
                1.      1.      1.      1.      1.      1.      1.
                1.      1.      1.      1.      1.      1.      1.
                1.      1.      1.      1.      1.      1.      1.
                1.      1.      1.      1.      1.      1.      1.
                1.      1.      1.      1.      1.      1.      1.
                1.      1.      1.      1.      1.      1.      1.
                1.      1.      1.      1.
                 0.      0.      0.      0.     .750191 .750191 .750191
                .999998 .999998 .999998 1.      1.      1.      1.
                 0.      0.      0.      0.     .250587 .250587 .250587
                .50047  .50047  .50047  .750117 .750117 .750117 1.
                1.      1.      1.
                 9       2       2       50
                         0.     .50047
                         0.     .25059
                        1.      1.
                         0.      0.     1.      1.
                 9       2       2       50
                         0.     .25059
                         0.      0.
                        1.      1.
                         0.      0.     1.      1.
                 9       2       2       50
                         0.      0.
                        .75019   0.
                        1.      1.
                         0.      0.     1.      1.
                 9       2       2       50
                        .75019   0.
                        1.       0.
                        1.      1.
                         0.      0.     1.      1.
                 9       2       2       50
                        1.       0.
                        1.      .25059
                        1.      1.
                         0.      0.     1.      1.
                 9       2       2       50
                        1.      .25059
                        1.      .50047
                        1.      1.
                         0.      0.     1.      1.
                 9       2       2       50
                        1.      .50047
                        1.      .75012
                        1.      1.
                         0.      0.     1.      1.
                 9       2       2       50
                        1.      .75012
                        1.      1.
                        1.      1.
                         0.      0.     1.      1.
                 9       2       2       50
                        1.      1.
                        .75019  1.
                        1.      1.
                         0.      0.     1.      1.
                 9       2       2       50
                        .75019  1.
                         0.     1.
                        1.      1.
                         0.      0.     1.      1.
                 9       2       2       50
                         0.     1.
                         0.     .75012
                        1.      1.
                         0.      0.     1.      1.
                 9       2       2       50
                         0.     .75012
                         0.     .50047
                        1.      1.
                         0.      0.     1.      1.
         NURBS   -2      2       2       2       50      50      5
                40.3102 -.112147 0.     -.240493-.041742 0.
                40.3226 6.99875  0.     -.2281467.06915  0.
                1.      1.      1.      1.
                 0.      0.     1.      1.       0.      0.     1.
                1.
                 9       2       2       50
                        .01634  .681
                        .01113  .34835
                        1.      1.
                         0.      0.     1.      1.
                 9       2       2       50
                        .01113  .34835
                        .00593  .01571
                        1.      1.
                         0.      0.     1.      1.
                 9       2       2       50
                        .00593  .01571
                        .99407  .00593
                        1.      1.
                         0.      0.     1.      1.
                 9       2       2       50
                        .99407  .00593
                        .02124  .99407
                        1.      1.
                         0.      0.     1.      1.
                 9       2       2       50
                        .02124  .99407
                        .01634  .681
                        1.      1.
                         0.      0.     1.      1.
         NURBS   -2      2       2       2       50      50      5
                39.7173 6.88935  0.     -.22959 -.082869 0.
                38.4947 13.8944  0.     -1.452236.92214  0.
                1.      1.      1.      1.
                 0.      0.     1.      1.       0.      0.     1.
                1.
                 9       2       2       50
                        .01634  .681
                        .01113  .34835
                        1.      1.
                         0.      0.     1.      1.
                 9       2       2       50
                        .01113  .34835
                        .00593  .01571
                        1.      1.
                         0.      0.     1.      1.
                 9       2       2       50
                        .00593  .01571
                        .99407  .00593
                        1.      1.
                         0.      0.     1.      1.
                 9       2       2       50
                        .99407  .00593
                        .02124  .99407
                        1.      1.
                         0.      0.     1.      1.
                 9       2       2       50
                        .02124  .99407
                        .01634  .681
                        1.      1.
                         0.      0.     1.      1.
         NURBS   -2      2       2       2       50      50      5
                37.9176 13.6815  0.     -.211712-.121478 0.
                35.4971 20.3678  0.     -2.632186.5648   0.
                1.      1.      1.      1.
                 0.      0.     1.      1.       0.      0.     1.
                1.
                 9       2       2       50
                        .01634  .681
                        .01113  .34835
                        1.      1.
                         0.      0.     1.      1.
                 9       2       2       50
                        .01113  .34835
                        .00593  .01571
                        1.      1.
                         0.      0.     1.      1.
                 9       2       2       50
                        .00593  .01571
                        .99407  .00593
                        1.      1.
                         0.      0.     1.      1.
                 9       2       2       50
                        .99407  .00593
                        .02124  .99407
                        1.      1.
                         0.      0.     1.      1.
                 9       2       2       50
                        .02124  .99407
                        .01634  .681
                        1.      1.
                         0.      0.     1.      1.
         NURBS   -2      2       2       2       50      50      5
                34.9658 20.058   0.     -.187402-.156396 0.
                31.421  26.2224  0.     -3.732166.00799  0.
                1.      1.      1.      1.
                 0.      0.     1.      1.       0.      0.     1.
                1.
                 9       2       2       50
                        .01634  .681
                        .01113  .34835
                        1.      1.
                         0.      0.     1.      1.
                 9       2       2       50
                        .01113  .34835
                        .00593  .01571
                        1.      1.
                         0.      0.     1.      1.
                 9       2       2       50
                        .00593  .01571
                        .99407  .00593
                        1.      1.
                         0.      0.     1.      1.
                 9       2       2       50
                        .99407  .00593
                        .02124  .99407
                        1.      1.
                         0.      0.     1.      1.
                 9       2       2       50
                        .02124  .99407
                        .01634  .681
                        1.      1.
                         0.      0.     1.      1.
         NURBS   -2      2       2       2       50      50      5
                30.9515 25.825   0.     -.157397-.186562 0.
                26.3902 31.2802  0.     -4.718735.26863  0.
                1.      1.      1.      1.
                 0.      0.     1.      1.       0.      0.     1.
                1.
                 9       2       2       50
                        .01634  .681
                        .01113  .34835
                        1.      1.
                         0.      0.     1.      1.
                 9       2       2       50
                        .01113  .34835
                        .00593  .01571
                        1.      1.
                         0.      0.     1.      1.
                 9       2       2       50
                        .00593  .01571
                        .99407  .00593
                        1.      1.
                         0.      0.     1.      1.
                 9       2       2       50
                        .99407  .00593
                        .02124  .99407
                        1.      1.
                         0.      0.     1.      1.
                 9       2       2       50
                        .02124  .99407
                        .01634  .681
                        1.      1.
                         0.      0.     1.      1.
         NURBS   -2      2       2       2       50      50      5
                25.9968 30.8073  0.     -.122609-.211059 0.
                20.5575 35.3876  0.     -5.561934.36919  0.
                1.      1.      1.      1.
                 0.      0.     1.      1.       0.      0.     1.
                1.
                 9       2       2       50
                        .01634  .681
                        .01113  .34835
                        1.      1.
                         0.      0.     1.      1.
                 9       2       2       50
                        .01113  .34835
                        .00593  .01571
                        1.      1.
                         0.      0.     1.      1.
                 9       2       2       50
                        .00593  .01571
                        .99407  .00593
                        1.      1.
                         0.      0.     1.      1.
                 9       2       2       50
                        .99407  .00593
                        .02124  .99407
                        1.      1.
                         0.      0.     1.      1.
                 9       2       2       50
                        .02124  .99407
                        .01634  .681
                        1.      1.
                         0.      0.     1.      1.
         NURBS   -2      2       2       2       50      50      5
                20.2522 34.8536  0.     -.084096-.229144 0.
                14.1002 38.4197  0.     -6.236143.337    0.
                1.      1.      1.      1.
                 0.      0.     1.      1.       0.      0.     1.
                1.
                 9       2       2       50
                        .01634  .681
                        .01113  .34835
                        1.      1.
                         0.      0.     1.      1.
                 9       2       2       50
                        .01113  .34835
                        .00593  .01571
                        1.      1.
                         0.      0.     1.      1.
                 9       2       2       50
                        .00593  .01571
                        .99407  .00593
                        1.      1.
                         0.      0.     1.      1.
                 9       2       2       50
                        .99407  .00593
                        .02124  .99407
                        1.      1.
                         0.      0.     1.      1.
                 9       2       2       50
                        .02124  .99407
                        .01634  .681
                        1.      1.
                         0.      0.     1.      1.
         NURBS   -2      2       2       2       50      50      5
                13.8923 37.8409  0.     -.043028-.240266 0.
                7.21446 40.2845  0.     -6.720862.20341  0.
                1.      1.      1.      1.
                 0.      0.     1.      1.       0.      0.     1.
                1.
                 9       2       2       50
                        .01634  .681
                        .01113  .34835
                        1.      1.
                         0.      0.     1.      1.
                 9       2       2       50
                        .01113  .34835
                        .00593  .01571
                        1.      1.
                         0.      0.     1.      1.
                 9       2       2       50
                        .00593  .01571
                        .99407  .00593
                        1.      1.
                         0.      0.     1.      1.
                 9       2       2       50
                        .99407  .00593
                        .02124  .99407
                        1.      1.
                         0.      0.     1.      1.
                 9       2       2       50
                        .02124  .99407
                        .01634  .681
                        1.      1.
                         0.      0.     1.      1.
         NURBS   -2      2       2       2       50      50      5
                7.11024 39.6784  0.     -6.532-4-.244087 0.
                .109521 40.9253  0.     -7.001371.00287  0.
                1.      1.      1.      1.
                 0.      0.     1.      1.       0.      0.     1.
                1.
                 9       2       2       50
                        .01634  .681
                        .01113  .34835
                        1.      1.
                         0.      0.     1.      1.
                 9       2       2       50
                        .01113  .34835
                        .00593  .01571
                        1.      1.
                         0.      0.     1.      1.
                 9       2       2       50
                        .00593  .01571
                        .99407  .00593
                        1.      1.
                         0.      0.     1.      1.
                 9       2       2       50
                        .99407  .00593
                        .02124  .99407
                        1.      1.
                         0.      0.     1.      1.
                 9       2       2       50
                        .02124  .99407
                        .01634  .681
                        1.      1.
                         0.      0.     1.      1.
         NURBS   -2      2       2       2       50      50      4
                50.      0.     -70.    50.      0.     -9.93
                49.2404 8.68241 -70.    49.2404 8.68241 -9.93
                1.      1.      1.      1.
                 0.      0.     1.      1.       0.      0.     1.
                1.
                 9       2       2       50
                        1.      1.
                         0.     1.
                        1.      1.
                         0.      0.     1.      1.
                 9       2       2       50
                         0.     1.
                         0.      0.
                        1.      1.
                         0.      0.     1.      1.
                 9       2       2       50
                         0.      0.
                        1.       0.
                        1.      1.
                         0.      0.     1.      1.
                 9       2       2       50
                        1.       0.
                        1.      1.
                        1.      1.
                         0.      0.     1.      1.
         NURBS   -4      4       4       4       50      50      0
                49.2404 8.68241 -70.    49.2404 8.68241 -49.9767
                49.2404 8.68241 -29.953349.2404 8.68241 -9.93
                48.4885 11.4886 -70.    48.4885 11.4886 -49.9767
                48.4885 11.4886 -29.953348.4885 11.4886 -9.93
                47.7366 14.2948 -70.    47.7366 14.2948 -49.9767
                47.7366 14.2948 -29.953347.7366 14.2948 -9.93
                46.9846 17.101  -70.    46.9846 17.101  -49.9767
                46.9846 17.101  -29.953346.9846 17.101  -9.93
                1.      1.      1.      1.      1.      1.      1.
                1.      1.      1.      1.      1.      1.      1.
                1.      1.
                 0.      0.      0.      0.     1.      1.      1.
                1.       0.      0.      0.      0.     1.      1.
                1.      1.
         NURBS   -2      2       2       2       50      50      4
                46.9846 17.101  -70.    46.9846 17.101  -9.93
                43.3013 25.     -70.    43.3013 25.     -9.93
                1.      1.      1.      1.
                 0.      0.     1.      1.       0.      0.     1.
                1.
                 9       2       2       50
                        1.      1.
                         0.     1.
                        1.      1.
                         0.      0.     1.      1.
                 9       2       2       50
                         0.     1.
                         0.      0.
                        1.      1.
                         0.      0.     1.      1.
                 9       2       2       50
                         0.      0.
                        1.       0.
                        1.      1.
                         0.      0.     1.      1.
                 9       2       2       50
                        1.       0.
                        1.      1.
                        1.      1.
                         0.      0.     1.      1.
         NURBS   -4      4       4       4       50      50      0
                43.3013 25.     -70.    43.3013 25.     -49.9767
                43.3013 25.     -29.953343.3013 25.     -9.93
                41.6349 27.3798 -70.    41.6349 27.3798 -49.9767
                41.6349 27.3798 -29.953341.6349 27.3798 -9.93
                39.9686 29.7596 -70.    39.9686 29.7596 -49.9767
                39.9686 29.7596 -29.953339.9686 29.7596 -9.93
                38.3022 32.1394 -70.    38.3022 32.1394 -49.9767
                38.3022 32.1394 -29.953338.3022 32.1394 -9.93
                1.      1.      1.      1.      1.      1.      1.
                1.      1.      1.      1.      1.      1.      1.
                1.      1.
                 0.      0.      0.      0.     1.      1.      1.
                1.       0.      0.      0.      0.     1.      1.
                1.      1.
         NURBS   -2      2       2       2       50      50      4
                38.3022 32.1394 -70.    38.3022 32.1394 -9.93
                32.1394 38.3022 -70.    32.1394 38.3022 -9.93
                1.      1.      1.      1.
                 0.      0.     1.      1.       0.      0.     1.
                1.
                 9       2       2       50
                        1.      1.
                         0.     1.
                        1.      1.
                         0.      0.     1.      1.
                 9       2       2       50
                         0.     1.
                         0.      0.
                        1.      1.
                         0.      0.     1.      1.
                 9       2       2       50
                         0.      0.
                        1.       0.
                        1.      1.
                         0.      0.     1.      1.
                 9       2       2       50
                        1.       0.
                        1.      1.
                        1.      1.
                         0.      0.     1.      1.
         NURBS   -4      4       4       4       50      50      0
                32.1394 38.3022 -70.    32.1394 38.3022 -49.9767
                32.1394 38.3022 -29.953332.1394 38.3022 -9.93
                29.7596 39.9686 -70.    29.7596 39.9686 -49.9767
                29.7596 39.9686 -29.953329.7596 39.9686 -9.93
                27.3798 41.6349 -70.    27.3798 41.6349 -49.9767
                27.3798 41.6349 -29.953327.3798 41.6349 -9.93
                25.     43.3013 -70.    25.     43.3013 -49.9767
                25.     43.3013 -29.953325.     43.3013 -9.93
                1.      1.      1.      1.      1.      1.      1.
                1.      1.      1.      1.      1.      1.      1.
                1.      1.
                 0.      0.      0.      0.     1.      1.      1.
                1.       0.      0.      0.      0.     1.      1.
                1.      1.
         NURBS   -2      2       2       2       50      50      4
                25.     43.3013 -70.    25.     43.3013 -9.93
                17.101  46.9846 -70.    17.101  46.9846 -9.93
                1.      1.      1.      1.
                 0.      0.     1.      1.       0.      0.     1.
                1.
                 9       2       2       50
                        1.      1.
                         0.     1.
                        1.      1.
                         0.      0.     1.      1.
                 9       2       2       50
                         0.     1.
                         0.      0.
                        1.      1.
                         0.      0.     1.      1.
                 9       2       2       50
                         0.      0.
                        1.       0.
                        1.      1.
                         0.      0.     1.      1.
                 9       2       2       50
                        1.       0.
                        1.      1.
                        1.      1.
                         0.      0.     1.      1.
         NURBS   -4      4       4       4       50      50      0
                17.101  46.9846 -70.    17.101  46.9846 -49.9767
                17.101  46.9846 -29.953317.101  46.9846 -9.93
                14.2948 47.7366 -70.    14.2948 47.7366 -49.9767
                14.2948 47.7366 -29.953314.2948 47.7366 -9.93
                11.4886 48.4885 -70.    11.4886 48.4885 -49.9767
                11.4886 48.4885 -29.953311.4886 48.4885 -9.93
                8.68241 49.2404 -70.    8.68241 49.2404 -49.9767
                8.68241 49.2404 -29.95338.68241 49.2404 -9.93
                1.      1.      1.      1.      1.      1.      1.
                1.      1.      1.      1.      1.      1.      1.
                1.      1.
                 0.      0.      0.      0.     1.      1.      1.
                1.       0.      0.      0.      0.     1.      1.
                1.      1.
         NURBS   -2      2       2       2       50      50      4
                8.68241 49.2404 -70.    8.68241 49.2404 -9.93
                -2.19-1550.     -70.    -2.19-1550.     -9.93
                1.      1.      1.      1.
                 0.      0.     1.      1.       0.      0.     1.
                1.
                 9       2       2       50
                        1.      1.
                         0.     1.
                        1.      1.
                         0.      0.     1.      1.
                 9       2       2       50
                         0.     1.
                         0.      0.
                        1.      1.
                         0.      0.     1.      1.
                 9       2       2       50
                         0.      0.
                        1.       0.
                        1.      1.
                         0.      0.     1.      1.
                 9       2       2       50
                        1.       0.
                        1.      1.
                        1.      1.
                         0.      0.     1.      1.
$ Rigid Body Contact LBC set: DIE
BCBODY   2       3D      RIGID           0               1       0
         0       0.      0.      0.      0.      0.      0.      0.
        RIGID   0       27      DIE
         NURBS   -7      13      4       4       50      50      0
                51.25    0.     8.14    51.25    0.     5.03295
                53.2588  0.     2.28274 56.2193  0.     1.33797
                56.9206  0.     1.11417 57.6533  0.     1.
                58.39    0.     1.      51.1851 .741622 8.14
                51.1851 .741622 5.03295 53.1914 .770749 2.28274
                56.1481 .813532 1.33797 56.8485 .823666 1.11417
                57.5803 .834284 1.      58.3161 .844943 1.
                51.1202 1.48325 8.14    51.1202 1.48325 5.03549
                53.1213 1.54131 2.28359 56.0769 1.62706 1.33797
                56.7771 1.64738 1.11396 57.5073 1.66856 1.
                58.2422 1.68989 1.      51.0554 2.22487 8.14
                51.0554 2.22487 5.03549 53.0539 2.31196 2.28359
                56.0058 2.44059 1.33797 56.705  2.47107 1.11396
                57.4343 2.50285 1.      58.1682 2.53483 1.
                50.9905 2.96649 8.14    50.9905 2.96649 5.03549
                52.9864 3.08261 2.28359 55.9346 3.25413 1.33797
                56.633  3.29476 1.11396 57.3613 3.33713 1.
                58.0943 3.37977 1.      50.9256 3.70811 8.14
                50.9256 3.70811 5.03634 52.9181 3.8532  2.28388
                55.8634 4.06766 1.33797 56.5611 4.11846 1.1139
                57.2883 4.17141 1.      58.0204 4.22472 1.
                50.8607 4.44974 8.14    50.8607 4.44974 5.03634
                52.8507 4.62384 2.28388 55.7922 4.88119 1.33797
                56.4891 4.94215 1.1139  57.2153 5.00569 1.
                57.9465 5.06966 1.      50.7958 5.19136 8.14
                50.7958 5.19136 5.03634 52.7833 5.39447 2.28388
                55.7211 5.69472 1.33797 56.417  5.76585 1.1139
                57.1423 5.83997 1.      57.8725 5.9146  1.
                50.7309 5.93298 8.14    50.7309 5.93298 5.03549
                52.7168 6.16517 2.28359 55.6499 6.50825 1.33797
                56.3447 6.58952 1.11396 57.0693 6.67425 1.
                57.7986 6.75955 1.      50.6661 6.6746  8.14
                50.6661 6.6746  5.03549 52.6493 6.93587 2.28359
                55.5787 7.32178 1.33797 56.2727 7.4132  1.11396
                56.9963 7.50854 1.      57.7247 7.60449 1.
                50.6012 7.41622 8.14    50.6012 7.41622 5.03549
                52.5819 7.70658 2.28359 55.5075 8.13532 1.33797
                56.2006 8.23688 1.11396 56.9234 8.34282 1.
                57.6508 8.44943 1.      50.5363 8.15785 8.14
                50.5363 8.15785 5.03295 52.5171 8.47755 2.28274
                55.4364 8.94885 1.33797 56.1279 9.06049 1.11417
                56.8504 9.17711 1.      57.5769 9.29437 1.
                50.4714 8.89947 8.14    50.4714 8.89947 5.03295
                52.4497 9.2483  2.28274 55.3652 9.76238 1.33797
                56.0558 9.88416 1.11417 56.7774 10.0114 1.
                57.5029 10.1393 1.
                1.      1.      1.      1.      1.      1.      1.
                1.      1.      1.      1.      1.      1.      1.
                1.      1.      1.      1.      1.      1.      1.
                1.      1.      1.      1.      1.      1.      1.
                1.      1.      1.      1.      1.      1.      1.
                1.      1.      1.      1.      1.      1.      1.
                1.      1.      1.      1.      1.      1.      1.
                1.      1.      1.      1.      1.      1.      1.
                1.      1.      1.      1.      1.      1.      1.
                1.      1.      1.      1.      1.      1.      1.
                1.      1.      1.      1.      1.      1.      1.
                1.      1.      1.      1.      1.      1.      1.
                1.      1.      1.      1.      1.      1.      1.
                 0.      0.      0.      0.     .803525 .803525 .803525
                1.      1.      1.      1.       0.      0.      0.
                 0.     .250591 .250591 .250591 .500473 .500473 .500473
                .750118 .750118 .750118 1.      1.      1.      1.
         NURBS   -7      13      4       4       50      50      0
                50.4714 8.89947 8.14    50.4714 8.89947 5.03295
                52.4497 9.2483  2.28274 55.3652 9.76238 1.33797
                56.0558 9.88416 1.11417 56.7774 10.0114 1.
                57.5029 10.1393 1.      50.2787 9.61856 8.14
                50.2787 9.61856 5.03295 52.2494 9.99563 2.28274
                55.1538 10.5512 1.33797 55.8419 10.6828 1.11417
                56.5607 10.8203 1.      57.2834 10.9586 1.
                50.086  10.3377 8.14    50.086  10.3377 5.03549
                52.0466 10.7423 2.28359 54.9425 11.34   1.33797
                55.6285 11.4816 1.11396 56.3439 11.6293 1.
                57.0639 11.7779 1.      49.8934 11.0567 8.14
                49.8934 11.0567 5.03549 51.8464 11.4895 2.28359
                54.7311 12.1288 1.33797 55.4145 12.2803 1.11396
                56.1271 12.4382 1.      56.8444 12.5971 1.
                49.7007 11.7758 8.14    49.7007 11.7758 5.03549
                51.6462 12.2368 2.28359 54.5197 12.9176 1.33797
                55.2005 13.0789 1.11396 55.9104 13.2471 1.
                56.6248 13.4164 1.      49.508  12.4949 8.14
                49.508  12.4949 5.03634 51.4451 12.9838 2.28388
                54.3084 13.7064 1.33797 54.9867 13.8776 1.1139
                55.6936 14.056  1.      56.4053 14.2357 1.
                49.3153 13.214  8.14    49.3153 13.214  5.03634
                51.2449 13.731  2.28388 54.097  14.4953 1.33797
                54.7727 14.6763 1.1139  55.4768 14.865  1.
                56.1858 15.0549 1.      49.1226 13.9331 8.14
                49.1226 13.9331 5.03634 51.0446 14.4782 2.28388
                53.8857 15.2841 1.33797 54.5587 15.475  1.1139
                55.2601 15.6739 1.      55.9663 15.8742 1.
                48.93   14.6522 8.14    48.93   14.6522 5.03549
                50.8453 15.2257 2.28359 53.6743 16.0729 1.33797
                54.3445 16.2736 1.11396 55.0434 16.4828 1.
                55.7467 16.6935 1.      48.7373 15.3713 8.14
                48.7373 15.3713 5.03549 50.6451 15.973  2.28359
                53.4629 16.8617 1.33797 54.1305 17.0722 1.11396
                54.8266 17.2918 1.      55.5272 17.5128 1.
                48.5446 16.0904 8.14    48.5446 16.0904 5.03549
                50.4448 16.7203 2.28359 53.2516 17.6505 1.33797
                53.9165 17.8709 1.11396 54.6098 18.1007 1.
                55.3077 18.332  1.      48.3519 16.8094 8.14
                48.3519 16.8094 5.03295 50.2472 17.4683 2.28274
                53.0402 18.4393 1.33797 53.7019 18.6694 1.11417
                54.3932 18.9097 1.      55.0882 19.1513 1.
                48.1593 17.5285 8.14    48.1593 17.5285 5.03295
                50.0469 18.2156 2.28274 52.8289 19.2281 1.33797
                53.4879 19.468  1.11417 54.1764 19.7186 1.
                54.8687 19.9706 1.
                1.      1.      1.      1.      1.      1.      1.
                1.      1.      1.      1.      1.      1.      1.
                1.      1.      1.      1.      1.      1.      1.
                1.      1.      1.      1.      1.      1.      1.
                1.      1.      1.      1.      1.      1.      1.
                1.      1.      1.      1.      1.      1.      1.
                1.      1.      1.      1.      1.      1.      1.
                1.      1.      1.      1.      1.      1.      1.
                1.      1.      1.      1.      1.      1.      1.
                1.      1.      1.      1.      1.      1.      1.
                1.      1.      1.      1.      1.      1.      1.
                1.      1.      1.      1.      1.      1.      1.
                1.      1.      1.      1.      1.      1.      1.
                 0.      0.      0.      0.     .803525 .803525 .803525
                1.      1.      1.      1.       0.      0.      0.
                 0.     .250591 .250591 .250591 .500473 .500473 .500473
                .750118 .750118 .750118 1.      1.      1.      1.
         NURBS   -7      13      4       4       50      50      0
                48.1593 17.5285 8.14    48.1593 17.5285 5.03295
                50.0469 18.2156 2.28274 52.8289 19.2281 1.33797
                53.4879 19.468  1.11417 54.1764 19.7186 1.
                54.8687 19.9706 1.      47.8446 18.2032 8.14
                47.8446 18.2032 5.03295 49.7199 18.9168 2.28274
                52.4837 19.9683 1.33797 53.1384 20.2173 1.11417
                53.8225 20.4776 1.      54.5102 20.7393 1.
                47.53   18.8779 8.14    47.53   18.8779 5.03549
                49.3905 19.6169 2.28359 52.1386 20.7084 1.33797
                52.7896 20.9669 1.11396 53.4685 21.2366 1.
                54.1517 21.508  1.      47.2154 19.5527 8.14
                47.2154 19.5527 5.03549 49.0636 20.318  2.28359
                51.7935 21.4485 1.33797 52.4402 21.7163 1.11396
                53.1146 21.9956 1.      53.7933 22.2767 1.
                46.9008 20.2274 8.14    46.9008 20.2274 5.03549
                48.7367 21.0191 2.28359 51.4484 22.1886 1.33797
                52.0907 22.4657 1.11396 52.7606 22.7546 1.
                53.4348 23.0454 1.      46.5861 20.9021 8.14
                46.5861 20.9021 5.03634 48.4089 21.7199 2.28388
                51.1032 22.9288 1.33797 51.7415 23.2151 1.1139
                52.4067 23.5136 1.      53.0764 23.8141 1.
                46.2715 21.5768 8.14    46.2715 21.5768 5.03634
                48.082  22.421  2.28388 50.7581 23.6689 1.33797
                51.392  23.9645 1.1139  52.0527 24.2726 1.
                52.7179 24.5828 1.      45.9569 22.2515 8.14
                45.9569 22.2515 5.03634 47.755  23.1221 2.28388
                50.413  24.409  1.33797 51.0426 24.7139 1.1139
                51.6988 25.0316 1.      52.3595 25.3515 1.
                45.6423 22.9262 8.14    45.6423 22.9262 5.03549
                47.4289 23.8236 2.28359 50.0678 25.1491 1.33797
                50.693  25.4632 1.11396 51.3449 25.7906 1.
                52.001  26.1202 1.      45.3277 23.6009 8.14
                45.3277 23.6009 5.03549 47.102  24.5247 2.28359
                49.7227 25.8893 1.33797 50.3435 26.2125 1.11396
                50.991  26.5496 1.      51.6426 26.8889 1.
                45.013  24.2756 8.14    45.013  24.2756 5.03549
                46.775  25.2259 2.28359 49.3776 26.6294 1.33797
                49.9941 26.9619 1.11396 50.637  27.3086 1.
                51.2841 27.6576 1.      44.6984 24.9503 8.14
                44.6984 24.9503 5.03295 46.4505 25.9282 2.28274
                49.0325 27.3695 1.33797 49.6441 27.711  1.11417
                50.2832 28.0677 1.      50.9257 28.4263 1.
                44.3838 25.625  8.14    44.3838 25.625  5.03295
                46.1235 26.6294 2.28274 48.6873 28.1096 1.33797
                49.2947 28.4603 1.11417 49.9292 28.8267 1.
                50.5672 29.195  1.
                1.      1.      1.      1.      1.      1.      1.
                1.      1.      1.      1.      1.      1.      1.
                1.      1.      1.      1.      1.      1.      1.
                1.      1.      1.      1.      1.      1.      1.
                1.      1.      1.      1.      1.      1.      1.
                1.      1.      1.      1.      1.      1.      1.
                1.      1.      1.      1.      1.      1.      1.
                1.      1.      1.      1.      1.      1.      1.
                1.      1.      1.      1.      1.      1.      1.
                1.      1.      1.      1.      1.      1.      1.
                1.      1.      1.      1.      1.      1.      1.
                1.      1.      1.      1.      1.      1.      1.
                1.      1.      1.      1.      1.      1.      1.
                 0.      0.      0.      0.     .803525 .803525 .803525
                1.      1.      1.      1.       0.      0.      0.
                 0.     .250591 .250591 .250591 .500473 .500473 .500473
                .750118 .750118 .750118 1.      1.      1.      1.
         NURBS   -7      13      4       4       50      50      12
                44.3838 25.625  8.14    44.3838 25.625  5.03295
                46.1235 26.6294 2.28274 48.6873 28.1096 1.33797
                49.2947 28.4603 1.11417 49.9293 28.8267 1.
                50.5672 29.195  1.      43.9568 26.2348 8.14
                43.9568 26.2348 5.03295 45.6797 27.2632 2.28274
                48.2189 28.7786 1.33797 48.8204 29.1376 1.11417
                49.4489 29.5127 1.      50.0807 29.8898 1.
                43.5298 26.8446 8.14    43.5298 26.8446 5.03549
                45.2337 27.8955 2.28359 47.7505 29.4476 1.33797
                48.3467 29.8152 1.11396 48.9685 30.1987 1.
                49.5942 30.5846 1.      43.1028 27.4545 8.14
                43.1028 27.4545 5.03549 44.79   28.5291 2.28359
                47.2821 30.1165 1.33797 47.8725 30.4925 1.11396
                48.4881 30.8847 1.      49.1078 31.2793 1.
                42.6758 28.0643 8.14    42.6758 28.0643 5.03549
                44.3463 29.1628 2.28359 46.8137 30.7855 1.33797
                47.3982 31.1698 1.11396 48.0078 31.5707 1.
                48.6213 31.9741 1.      42.2488 28.6741 8.14
                42.2488 28.6741 5.03634 43.9018 29.796  2.28388
                46.3453 31.4544 1.33797 46.9241 31.8473 1.1139
                47.5274 32.2567 1.      48.1348 32.6689 1.
                41.8218 29.2839 8.14    41.8218 29.2839 5.03634
                43.4581 30.4297 2.28388 45.8769 32.1234 1.33797
                46.4499 32.5246 1.1139  47.0471 32.9427 1.
                47.6483 33.3637 1.      41.3948 29.8938 8.14
                41.3948 29.8938 5.03634 43.0144 31.0634 2.28388
                45.4085 32.7923 1.33797 45.9756 33.2019 1.1139
                46.5667 33.6287 1.      47.1618 34.0585 1.
                40.9678 30.5036 8.14    40.9678 30.5036 5.03549
                42.5715 31.6976 2.28359 44.9401 33.4613 1.33797
                45.5012 33.8791 1.11396 46.0864 34.3147 1.
                46.6753 34.7532 1.      40.5408 31.1134 8.14
                40.5408 31.1134 5.03549 42.1277 32.3313 2.28359
                44.4717 34.1302 1.33797 45.027  34.5564 1.11396
                45.606  35.0008 1.      46.1888 35.448  1.
                40.1138 31.7232 8.14    40.1138 31.7232 5.03549
                41.684  32.965  2.28359 44.0033 34.7992 1.33797
                44.5527 35.2336 1.11396 45.1257 35.6868 1.
                45.7023 36.1428 1.      39.6868 32.333  8.14
                39.6868 32.333  5.03295 41.2424 33.6003 2.28274
                43.5349 35.4681 1.33797 44.078  35.9106 1.11417
                44.6454 36.3728 1.      45.2158 36.8376 1.
                39.2598 32.9429 8.14    39.2598 32.9429 5.03295
                40.7986 34.2341 2.28274 43.0665 36.1371 1.33797
                43.6037 36.5879 1.11417 44.165  37.0588 1.
                44.7293 37.5324 1.
                1.      1.      1.      1.      1.      1.      1.
                1.      1.      1.      1.      1.      1.      1.
                1.      1.      1.      1.      1.      1.      1.
                1.      1.      1.      1.      1.      1.      1.
                1.      1.      1.      1.      1.      1.      1.
                1.      1.      1.      1.      1.      1.      1.
                1.      1.      1.      1.      1.      1.      1.
                1.      1.      1.      1.      1.      1.      1.
                1.      1.      1.      1.      1.      1.      1.
                1.      1.      1.      1.      1.      1.      1.
                1.      1.      1.      1.      1.      1.      1.
                1.      1.      1.      1.      1.      1.      1.
                1.      1.      1.      1.      1.      1.      1.
                 0.      0.      0.      0.     .803525 .803525 .803525
                1.      1.      1.      1.       0.      0.      0.
                 0.     .250591 .250591 .250591 .500473 .500473 .500473
                .750118 .750118 .750118 1.      1.      1.      1.
                 9       2       2       50
                         0.     .50047
                         0.     .25059
                        1.      1.
                         0.      0.     1.      1.
                 9       2       2       50
                         0.     .25059
                         0.      0.
                        1.      1.
                         0.      0.     1.      1.
                 9       2       2       50
                         0.      0.
                        .80352   0.
                        1.      1.
                         0.      0.     1.      1.
                 9       2       2       50
                        .80352   0.
                        1.       0.
                        1.      1.
                         0.      0.     1.      1.
                 9       2       2       50
                        1.       0.
                        1.      .25059
                        1.      1.
                         0.      0.     1.      1.
                 9       2       2       50
                        1.      .25059
                        1.      .50047
                        1.      1.
                         0.      0.     1.      1.
                 9       2       2       50
                        1.      .50047
                        1.      .75012
                        1.      1.
                         0.      0.     1.      1.
                 9       2       2       50
                        1.      .75012
                        1.      1.
                        1.      1.
                         0.      0.     1.      1.
                 9       2       2       50
                        1.      1.
                        .80352  1.
                        1.      1.
                         0.      0.     1.      1.
                 9       2       2       50
                        .80352  1.
                         0.     1.
                        1.      1.
                         0.      0.     1.      1.
                 9       2       2       50
                         0.     1.
                         0.     .75012
                        1.      1.
                         0.      0.     1.      1.
                 9       2       2       50
                         0.     .75012
                         0.     .50047
                        1.      1.
                         0.      0.     1.      1.
         NURBS   -10     16      4       4       50      50      12
                39.2976 32.9051 8.14    39.2976 32.9051 5.03295
                40.8379 34.1948 2.28274 43.108  36.0956 1.33797
                43.6457 36.5459 1.11417 44.2076 37.0163 1.
                44.7724 37.4893 1.      44.7897 37.5037 1.
                44.8069 37.5182 1.      44.8242 37.5326 1.
                39.285  32.9177 8.14    39.285  32.9177 5.03295
                40.8248 34.2079 2.28274 43.0941 36.1094 1.33797
                43.6317 36.5599 1.11417 44.1934 37.0305 1.
                44.7581 37.5037 1.      44.7753 37.5181 1.
                44.7926 37.5326 1.      44.8098 37.547  1.
                39.2724 32.9303 8.14    39.2724 32.9303 5.03295
                40.8117 34.221  2.28274 43.0803 36.1232 1.33797
                43.6177 36.5739 1.11417 44.1792 37.0447 1.
                44.7437 37.518  1.      44.7609 37.5325 1.
                44.7782 37.5469 1.      44.7954 37.5614 1.
                39.2598 32.9429 8.14    39.2598 32.9429 5.03295
                40.7986 34.2341 2.28274 43.0665 36.1371 1.33797
                43.6037 36.5879 1.11417 44.165  37.0589 1.
                44.7293 37.5324 1.      44.7466 37.5468 1.
                44.7638 37.5613 1.      44.781  37.5758 1.
                38.7334 33.4693 8.14    38.7334 33.4693 5.03295
                40.2515 34.7812 2.28274 42.489  36.7145 1.33797
                43.0191 37.1725 1.11417 43.5728 37.651  1.
                44.1296 38.1321 1.      44.1466 38.1468 1.
                44.1636 38.1615 1.      44.1806 38.1762 1.
                38.207  33.9957 8.14    38.207  33.9957 5.03549
                39.7025 35.3264 2.28359 41.9116 37.292  1.33797
                42.4349 37.7576 1.11396 42.9806 38.2432 1.
                43.5298 38.7319 1.      43.5466 38.7468 1.
                43.5634 38.7617 1.      43.5802 38.7766 1.
                37.6806 34.5221 8.14    37.6806 34.5221 5.03549
                39.1555 35.8734 2.28359 41.3341 37.8694 1.33797
                41.8502 38.3422 1.11396 42.3884 38.8353 1.
                42.9301 39.3316 1.      42.9466 39.3468 1.
                42.9632 39.3619 1.      42.9797 39.3771 1.
                37.1541 35.0485 8.14    37.1541 35.0485 5.03549
                38.6085 36.4204 2.28359 40.7567 38.4469 1.33797
                41.2655 38.9269 1.11396 41.7962 39.4275 1.
                42.3304 39.9314 1.      42.3467 39.9468 1.
                42.363  39.9621 1.      42.3793 39.9775 1.
                36.6277 35.5749 8.14    36.6277 35.5749 5.03634
                38.0608 36.9668 2.28388 40.1792 39.0243 1.33797
                40.681  39.5117 1.1139  41.204  40.0197 1.
                41.7306 40.5311 1.      41.7467 40.5467 1.
                41.7628 40.5623 1.      41.7788 40.578  1.
                36.1013 36.1013 8.14    36.1013 36.1013 5.03634
                37.5138 37.5138 2.28388 39.6018 39.6018 1.33797
                40.0964 40.0964 1.1139  40.6119 40.6119 1.
                41.1309 41.1309 1.      41.1467 41.1467 1.
                41.1626 41.1626 1.      41.1784 41.1784 1.
                35.5749 36.6277 8.14    35.5749 36.6277 5.03634
                36.9668 38.0608 2.28388 39.0243 40.1792 1.33797
                39.5117 40.681  1.1139  40.0197 41.204  1.
                40.5311 41.7306 1.      40.5467 41.7467 1.
                40.5623 41.7628 1.      40.578  41.7788 1.
                35.0485 37.1541 8.14    35.0485 37.1541 5.03549
                36.4205 38.6085 2.28359 38.4469 40.7567 1.33797
                38.9269 41.2656 1.11396 39.4275 41.7962 1.
                39.9314 42.3304 1.      39.9468 42.3467 1.
                39.9621 42.363  1.      39.9775 42.3793 1.
                34.5221 37.6806 8.14    34.5221 37.6806 5.03549
                35.8734 39.1555 2.28359 37.8694 41.3341 1.33797
                38.3422 41.8502 1.11396 38.8353 42.3884 1.
                39.3316 42.9301 1.      39.3468 42.9466 1.
                39.3619 42.9632 1.      39.3771 42.9797 1.
                33.9957 38.207  8.14    33.9957 38.207  5.03549
                35.3264 39.7026 2.28359 37.292  41.9116 1.33797
                37.7576 42.4349 1.11396 38.2432 42.9806 1.
                38.7319 43.5298 1.      38.7468 43.5466 1.
                38.7617 43.5634 1.      38.7766 43.5802 1.
                33.4693 38.7334 8.14    33.4693 38.7334 5.03295
                34.7812 40.2515 2.28274 36.7145 42.489  1.33797
                37.1725 43.0191 1.11417 37.651  43.5728 1.
                38.1321 44.1296 1.      38.1468 44.1466 1.
                38.1615 44.1636 1.      38.1762 44.1806 1.
                32.9429 39.2598 8.14    32.9429 39.2598 5.03295
                34.2341 40.7986 2.28274 36.1371 43.0665 1.33797
                36.5879 43.6037 1.11417 37.0589 44.165  1.
                37.5324 44.7293 1.      37.5468 44.7466 1.
                37.5613 44.7638 1.      37.5758 44.781  1.
                1.      1.      1.      1.      1.      1.      1.
                1.      1.      1.      1.      1.      1.      1.
                1.      1.      1.      1.      1.      1.      1.
                1.      1.      1.      1.      1.      1.      1.
                1.      1.      1.      1.      1.      1.      1.
                1.      1.      1.      1.      1.      1.      1.
                1.      1.      1.      1.      1.      1.      1.
                1.      1.      1.      1.      1.      1.      1.
                1.      1.      1.      1.      1.      1.      1.
                1.      1.      1.      1.      1.      1.      1.
                1.      1.      1.      1.      1.      1.      1.
                1.      1.      1.      1.      1.      1.      1.
                1.      1.      1.      1.      1.      1.      1.
                1.      1.      1.      1.      1.      1.      1.
                1.      1.      1.      1.      1.      1.      1.
                1.      1.      1.      1.      1.      1.      1.
                1.      1.      1.      1.      1.      1.      1.
                1.      1.      1.      1.      1.      1.      1.
                1.      1.      1.      1.      1.      1.      1.
                1.      1.      1.      1.      1.      1.      1.
                1.      1.      1.      1.      1.      1.      1.
                1.      1.      1.      1.      1.      1.      1.
                1.      1.      1.      1.      1.      1.
                 0.      0.      0.      0.     .798732 .798732 .798732
                .994036 .994036 .994036 1.      1.      1.      1.
                 0.      0.      0.      0.     .0059645.0059645.0059645
                .255061 .255061 .255061 .503452 .503452 .503452 .751608
                .751608 .751608 1.      1.      1.      1.
                 9       2       2       50
                         0.     .50345
                         0.     .25506
                        1.      1.
                         0.      0.     1.      1.
                 9       2       2       50
                         0.     .25506
                         0.     .00596
                        1.      1.
                         0.      0.     1.      1.
                 9       2       2       50
                         0.     .00596
                        .79873  .00596
                        1.      1.
                         0.      0.     1.      1.
                 9       2       2       50
                        .79873  .00596
                        .99404  .00596
                        1.      1.
                         0.      0.     1.      1.
                 9       2       2       50
                        .99404  .00596
                        .99404  .25506
                        1.      1.
                         0.      0.     1.      1.
                 9       2       2       50
                        .99404  .25506
                        .99404  .50345
                        1.      1.
                         0.      0.     1.      1.
                 9       2       2       50
                        .99404  .50345
                        .99404  .75161
                        1.      1.
                         0.      0.     1.      1.
                 9       2       2       50
                        .99404  .75161
                        .99404  1.
                        1.      1.
                         0.      0.     1.      1.
                 9       2       2       50
                        .99404  1.
                        .79873  1.
                        1.      1.
                         0.      0.     1.      1.
                 9       2       2       50
                        .79873  1.
                         0.     1.
                        1.      1.
                         0.      0.     1.      1.
                 9       2       2       50
                         0.     1.
                         0.     .75161
                        1.      1.
                         0.      0.     1.      1.
                 9       2       2       50
                         0.     .75161
                         0.     .50345
                        1.      1.
                         0.      0.     1.      1.
         NURBS   -7      13      4       4       50      50      0
                32.9429 39.2598 8.14    32.9429 39.2598 5.03295
                34.2341 40.7986 2.28274 36.1371 43.0665 1.33797
                36.5879 43.6037 1.11417 37.0589 44.165  1.
                37.5324 44.7293 1.      32.333  39.6868 8.14
                32.333  39.6868 5.03295 33.6003 41.2424 2.28274
                35.4681 43.5349 1.33797 35.9106 44.078  1.11417
                36.3728 44.6454 1.      36.8376 45.2158 1.
                31.7232 40.1138 8.14    31.7232 40.1138 5.03549
                32.965  41.684  2.28359 34.7992 44.0033 1.33797
                35.2337 44.5527 1.11396 35.6868 45.1257 1.
                36.1428 45.7023 1.      31.1134 40.5408 8.14
                31.1134 40.5408 5.03549 32.3313 42.1277 2.28359
                34.1302 44.4717 1.33797 34.5564 45.027  1.11396
                35.0008 45.606  1.      35.448  46.1888 1.
                30.5036 40.9678 8.14    30.5036 40.9678 5.03549
                31.6976 42.5714 2.28359 33.4613 44.9401 1.33797
                33.879  45.5012 1.11396 34.3147 46.0864 1.
                34.7533 46.6753 1.      29.8938 41.3948 8.14
                29.8938 41.3948 5.03634 31.0634 43.0144 2.28388
                32.7923 45.4085 1.33797 33.2019 45.9756 1.1139
                33.6287 46.5667 1.      34.0585 47.1618 1.
                29.2839 41.8218 8.14    29.2839 41.8218 5.03634
                30.4297 43.4581 2.28388 32.1234 45.8769 1.33797
                32.5246 46.4499 1.1139  32.9427 47.0471 1.
                33.3637 47.6483 1.      28.6741 42.2488 8.14
                28.6741 42.2488 5.03634 29.796  43.9018 2.28388
                31.4544 46.3453 1.33797 31.8473 46.9241 1.1139
                32.2567 47.5274 1.      32.6689 48.1348 1.
                28.0643 42.6758 8.14    28.0643 42.6758 5.03549
                29.1629 44.3463 2.28359 30.7855 46.8137 1.33797
                31.1698 47.3982 1.11396 31.5707 48.0078 1.
                31.9741 48.6213 1.      27.4545 43.1028 8.14
                27.4545 43.1028 5.03549 28.5292 44.79   2.28359
                30.1165 47.2821 1.33797 30.4925 47.8725 1.11396
                30.8847 48.4881 1.      31.2793 49.1078 1.
                26.8446 43.5298 8.14    26.8446 43.5298 5.03549
                27.8954 45.2338 2.28359 29.4476 47.7505 1.33797
                29.8152 48.3467 1.11396 30.1987 48.9685 1.
                30.5846 49.5942 1.      26.2348 43.9568 8.14
                26.2348 43.9568 5.03295 27.2632 45.6797 2.28274
                28.7786 48.2189 1.33797 29.1376 48.8204 1.11417
                29.5127 49.4489 1.      29.8898 50.0807 1.
                25.625  44.3838 8.14    25.625  44.3838 5.03295
                26.6294 46.1235 2.28274 28.1096 48.6873 1.33797
                28.4603 49.2947 1.11417 28.8267 49.9292 1.
                29.195  50.5672 1.
                1.      1.      1.      1.      1.      1.      1.
                1.      1.      1.      1.      1.      1.      1.
                1.      1.      1.      1.      1.      1.      1.
                1.      1.      1.      1.      1.      1.      1.
                1.      1.      1.      1.      1.      1.      1.
                1.      1.      1.      1.      1.      1.      1.
                1.      1.      1.      1.      1.      1.      1.
                1.      1.      1.      1.      1.      1.      1.
                1.      1.      1.      1.      1.      1.      1.
                1.      1.      1.      1.      1.      1.      1.
                1.      1.      1.      1.      1.      1.      1.
                1.      1.      1.      1.      1.      1.      1.
                1.      1.      1.      1.      1.      1.      1.
                 0.      0.      0.      0.     .803525 .803525 .803525
                1.      1.      1.      1.       0.      0.      0.
                 0.     .250591 .250591 .250591 .500473 .500473 .500473
                .750118 .750118 .750118 1.      1.      1.      1.
         NURBS   -7      16      4       4       50      50      12
                25.6735 44.3612 8.14    25.6735 44.3612 5.03295
                26.6798 46.1    2.28274 28.1628 48.6625 1.33797
                28.5141 49.2696 1.11417 28.8812 49.9038 1.
                29.2502 50.5415 1.      25.6573 44.3687 8.14
                25.6573 44.3687 5.03295 26.663  46.1078 2.28274
                28.1451 48.6708 1.33797 28.4962 49.278  1.11417
                28.863  49.9123 1.      29.2318 50.5501 1.
                25.6412 44.3763 8.14    25.6412 44.3763 5.03295
                26.6462 46.1157 2.28274 28.1274 48.6791 1.33797
                28.4782 49.2863 1.11417 28.8448 49.9208 1.
                29.2134 50.5586 1.      25.625  44.3838 8.14
                25.625  44.3838 5.03295 26.6294 46.1235 2.28274
                28.1096 48.6873 1.33797 28.4603 49.2947 1.11417
                28.8267 49.9293 1.      29.195  50.5672 1.
                24.9503 44.6984 8.14    24.9503 44.6984 5.03295
                25.9282 46.4505 2.28274 27.3695 49.0325 1.33797
                27.711  49.6441 1.11417 28.0677 50.2832 1.
                28.4263 50.9257 1.      24.2756 45.013  8.14
                24.2756 45.013  5.03549 25.2258 46.775  2.28359
                26.6294 49.3776 1.33797 26.9619 49.9941 1.11396
                27.3086 50.637  1.      27.6576 51.2841 1.
                23.6009 45.3277 8.14    23.6009 45.3277 5.03549
                24.5247 47.102  2.28359 25.8893 49.7227 1.33797
                26.2125 50.3435 1.11396 26.5496 50.991  1.
                26.8889 51.6426 1.      22.9262 45.6423 8.14
                22.9262 45.6423 5.03549 23.8236 47.4289 2.28359
                25.1491 50.0678 1.33797 25.4631 50.693  1.11396
                25.7906 51.3449 1.      26.1202 52.001  1.
                22.2515 45.9569 8.14    22.2515 45.9569 5.03634
                23.1221 47.755  2.28388 24.409  50.413  1.33797
                24.7139 51.0426 1.1139  25.0316 51.6988 1.
                25.3515 52.3595 1.      21.5768 46.2715 8.14
                21.5768 46.2715 5.03634 22.421  48.082  2.28388
                23.6689 50.7581 1.33797 23.9645 51.392  1.1139
                24.2726 52.0527 1.      24.5828 52.718  1.
                20.9021 46.5861 8.14    20.9021 46.5861 5.03634
                21.7199 48.4089 2.28388 22.9288 51.1032 1.33797
                23.2151 51.7415 1.1139  23.5136 52.4067 1.
                23.8141 53.0764 1.      20.2274 46.9008 8.14
                20.2274 46.9008 5.03549 21.0192 48.7366 2.28359
                22.1886 51.4484 1.33797 22.4657 52.0907 1.11396
                22.7546 52.7606 1.      23.0454 53.4348 1.
                19.5527 47.2154 8.14    19.5527 47.2154 5.03549
                20.318  49.0636 2.28359 21.4485 51.7935 1.33797
                21.7163 52.4402 1.11396 21.9956 53.1146 1.
                22.2767 53.7933 1.      18.8779 47.53   8.14
                18.8779 47.53   5.03549 19.6169 49.3905 2.28359
                20.7084 52.1386 1.33797 20.967  52.7896 1.11396
                21.2366 53.4685 1.      21.508  54.1518 1.
                18.2032 47.8446 8.14    18.2032 47.8446 5.03295
                18.9168 49.7199 2.28274 19.9683 52.4837 1.33797
                20.2173 53.1384 1.11417 20.4776 53.8225 1.
                20.7393 54.5102 1.      17.5285 48.1593 8.14
                17.5285 48.1593 5.03295 18.2156 50.0469 2.28274
                19.2281 52.8289 1.33797 19.468  53.4879 1.11417
                19.7186 54.1764 1.      19.9706 54.8687 1.
                1.      1.      1.      1.      1.      1.      1.
                1.      1.      1.      1.      1.      1.      1.
                1.      1.      1.      1.      1.      1.      1.
                1.      1.      1.      1.      1.      1.      1.
                1.      1.      1.      1.      1.      1.      1.
                1.      1.      1.      1.      1.      1.      1.
                1.      1.      1.      1.      1.      1.      1.
                1.      1.      1.      1.      1.      1.      1.
                1.      1.      1.      1.      1.      1.      1.
                1.      1.      1.      1.      1.      1.      1.
                1.      1.      1.      1.      1.      1.      1.
                1.      1.      1.      1.      1.      1.      1.
                1.      1.      1.      1.      1.      1.      1.
                1.      1.      1.      1.      1.      1.      1.
                1.      1.      1.      1.      1.      1.      1.
                1.      1.      1.      1.      1.      1.      1.
                 0.      0.      0.      0.     .803525 .803525 .803525
                1.      1.      1.      1.       0.      0.      0.
                 0.     .0059646.0059646.0059646.255046 .255046 .255046
                .50344  .50344  .50344  .751606 .751606 .751606 1.
                1.      1.      1.
                 9       2       2       50
                         0.     .50344
                         0.     .25505
                        1.      1.
                         0.      0.     1.      1.
                 9       2       2       50
                         0.     .25505
                         0.     .00596
                        1.      1.
                         0.      0.     1.      1.
                 9       2       2       50
                         0.     .00596
                        .80352  .00596
                        1.      1.
                         0.      0.     1.      1.
                 9       2       2       50
                        .80352  .00596
                        1.      .00596
                        1.      1.
                         0.      0.     1.      1.
                 9       2       2       50
                        1.      .00596
                        1.      .25505
                        1.      1.
                         0.      0.     1.      1.
                 9       2       2       50
                        1.      .25505
                        1.      .50344
                        1.      1.
                         0.      0.     1.      1.
                 9       2       2       50
                        1.      .50344
                        1.      .75161
                        1.      1.
                         0.      0.     1.      1.
                 9       2       2       50
                        1.      .75161
                        1.      1.
                        1.      1.
                         0.      0.     1.      1.
                 9       2       2       50
                        1.      1.
                        .80352  1.
                        1.      1.
                         0.      0.     1.      1.
                 9       2       2       50
                        .80352  1.
                         0.     1.
                        1.      1.
                         0.      0.     1.      1.
                 9       2       2       50
                         0.     1.
                         0.     .75161
                        1.      1.
                         0.      0.     1.      1.
                 9       2       2       50
                         0.     .75161
                         0.     .50344
                        1.      1.
                         0.      0.     1.      1.
         NURBS   -10     13      4       4       50      50      12
                17.5285 48.1593 8.14    17.5285 48.1593 5.03295
                18.2156 50.0469 2.28274 19.2281 52.8289 1.33797
                19.468  53.4879 1.11417 19.7186 54.1764 1.
                19.9706 54.8687 1.      19.9783 54.8898 1.
                19.9859 54.9109 1.      19.9936 54.9321 1.
                16.8094 48.3519 8.14    16.8094 48.3519 5.03295
                17.4683 50.2472 2.28274 18.4393 53.0402 1.33797
                18.6694 53.7019 1.11417 18.9097 54.3932 1.
                19.1513 55.0882 1.      19.1587 55.1094 1.
                19.166  55.1306 1.      19.1734 55.1519 1.
                16.0904 48.5446 8.14    16.0904 48.5446 5.03549
                16.7202 50.4448 2.28359 17.6505 53.2516 1.33797
                17.8709 53.9165 1.11396 18.1007 54.6098 1.
                18.332  55.3077 1.      18.3391 55.329  1.
                18.3461 55.3503 1.      18.3532 55.3716 1.
                15.3713 48.7373 8.14    15.3713 48.7373 5.03549
                15.973  50.6451 2.28359 16.8617 53.4629 1.33797
                17.0722 54.1305 1.11396 17.2918 54.8266 1.
                17.5128 55.5272 1.      17.5195 55.5486 1.
                17.5262 55.57   1.      17.533  55.5914 1.
                14.6522 48.93   8.14    14.6522 48.93   5.03549
                15.2257 50.8453 2.28359 16.0729 53.6743 1.33797
                16.2736 54.3445 1.11396 16.4828 55.0434 1.
                16.6935 55.7467 1.      16.6999 55.7682 1.
                16.7063 55.7897 1.      16.7128 55.8112 1.
                13.9331 49.1226 8.14    13.9331 49.1226 5.03634
                14.4782 51.0446 2.28388 15.2841 53.8857 1.33797
                15.475  54.5587 1.1139  15.6739 55.2601 1.
                15.8742 55.9663 1.      15.8803 55.9878 1.
                15.8864 56.0094 1.      15.8926 56.031  1.
                13.214  49.3153 8.14    13.214  49.3153 5.03634
                13.731  51.2449 2.28388 14.4953 54.097  1.33797
                14.6763 54.7727 1.1139  14.865  55.4768 1.
                15.0549 56.1858 1.      15.0607 56.2074 1.
                15.0665 56.2291 1.      15.0723 56.2507 1.
                12.4949 49.508  8.14    12.4949 49.508  5.03634
                12.9838 51.4451 2.28388 13.7064 54.3084 1.33797
                13.8776 54.9867 1.1139  14.056  55.6936 1.
                14.2357 56.4053 1.      14.2412 56.4271 1.
                14.2466 56.4488 1.      14.2521 56.4705 1.
                11.7758 49.7007 8.14    11.7758 49.7007 5.03549
                12.2368 51.6462 2.28359 12.9176 54.5197 1.33797
                13.0789 55.2005 1.11396 13.2471 55.9104 1.
                13.4164 56.6248 1.      13.4216 56.6467 1.
                13.4267 56.6685 1.      13.4319 56.6903 1.
                11.0567 49.8934 8.14    11.0567 49.8934 5.03549
                11.4895 51.8464 2.28359 12.1288 54.7311 1.33797
                12.2803 55.4145 1.11396 12.4382 56.1271 1.
                12.5971 56.8444 1.      12.602  56.8663 1.
                12.6068 56.8882 1.      12.6117 56.9101 1.
                10.3377 50.086  8.14    10.3377 50.086  5.03549
                10.7423 52.0466 2.28359 11.34   54.9425 1.33797
                11.4816 55.6285 1.11396 11.6293 56.3439 1.
                11.7779 57.0639 1.      11.7824 57.0859 1.
                11.7869 57.1079 1.      11.7915 57.1298 1.
                9.61856 50.2787 8.14    9.61856 50.2787 5.03295
                9.99563 52.2494 2.28274 10.5512 55.1538 1.33797
                10.6828 55.8419 1.11417 10.8203 56.5607 1.
                10.9586 57.2834 1.      10.9628 57.3055 1.
                10.967  57.3276 1.      10.9713 57.3496 1.
                8.89947 50.4714 8.14    8.89947 50.4714 5.03295
                9.2483  52.4497 2.28274 9.76238 55.3652 1.33797
                9.88416 56.0558 1.11417 10.0114 56.7774 1.
                10.1393 57.5029 1.      10.1432 57.5251 1.
                10.1471 57.5472 1.      10.151  57.5694 1.
                1.      1.      1.      1.      1.      1.      1.
                1.      1.      1.      1.      1.      1.      1.
                1.      1.      1.      1.      1.      1.      1.
                1.      1.      1.      1.      1.      1.      1.
                1.      1.      1.      1.      1.      1.      1.
                1.      1.      1.      1.      1.      1.      1.
                1.      1.      1.      1.      1.      1.      1.
                1.      1.      1.      1.      1.      1.      1.
                1.      1.      1.      1.      1.      1.      1.
                1.      1.      1.      1.      1.      1.      1.
                1.      1.      1.      1.      1.      1.      1.
                1.      1.      1.      1.      1.      1.      1.
                1.      1.      1.      1.      1.      1.      1.
                1.      1.      1.      1.      1.      1.      1.
                1.      1.      1.      1.      1.      1.      1.
                1.      1.      1.      1.      1.      1.      1.
                1.      1.      1.      1.      1.      1.      1.
                1.      1.      1.      1.      1.      1.      1.
                1.      1.      1.      1.
                 0.      0.      0.      0.     .798732 .798732 .798732
                .994036 .994036 .994036 1.      1.      1.      1.
                 0.      0.      0.      0.     .250591 .250591 .250591
                .500473 .500473 .500473 .750118 .750118 .750118 1.
                1.      1.      1.
                 9       2       2       50
                         0.     .50047
                         0.     .25059
                        1.      1.
                         0.      0.     1.      1.
                 9       2       2       50
                         0.     .25059
                         0.      0.
                        1.      1.
                         0.      0.     1.      1.
                 9       2       2       50
                         0.      0.
                        .79873   0.
                        1.      1.
                         0.      0.     1.      1.
                 9       2       2       50
                        .79873   0.
                        .99404   0.
                        1.      1.
                         0.      0.     1.      1.
                 9       2       2       50
                        .99404   0.
                        .99404  .25059
                        1.      1.
                         0.      0.     1.      1.
                 9       2       2       50
                        .99404  .25059
                        .99404  .50047
                        1.      1.
                         0.      0.     1.      1.
                 9       2       2       50
                        .99404  .50047
                        .99404  .75012
                        1.      1.
                         0.      0.     1.      1.
                 9       2       2       50
                        .99404  .75012
                        .99404  1.
                        1.      1.
                         0.      0.     1.      1.
                 9       2       2       50
                        .99404  1.
                        .79873  1.
                        1.      1.
                         0.      0.     1.      1.
                 9       2       2       50
                        .79873  1.
                         0.     1.
                        1.      1.
                         0.      0.     1.      1.
                 9       2       2       50
                         0.     1.
                         0.     .75012
                        1.      1.
                         0.      0.     1.      1.
                 9       2       2       50
                         0.     .75012
                         0.     .50047
                        1.      1.
                         0.      0.     1.      1.
         NURBS   -7      13      4       4       50      50      0
                8.89947 50.4714 8.14    8.89947 50.4714 5.03295
                9.2483  52.4497 2.28274 9.76238 55.3652 1.33797
                9.88416 56.0558 1.11417 10.0114 56.7774 1.
                10.1393 57.5029 1.      8.15785 50.5363 8.14
                8.15785 50.5363 5.03295 8.47755 52.5171 2.28274
                8.94885 55.4364 1.33797 9.06049 56.1279 1.11417
                9.17711 56.8504 1.      9.29437 57.5769 1.
                7.41622 50.6012 8.14    7.41622 50.6012 5.03549
                7.70653 52.5819 2.28359 8.13532 55.5075 1.33797
                8.23689 56.2006 1.11396 8.34282 56.9234 1.
                8.44943 57.6508 1.      6.6746  50.6661 8.14
                6.6746  50.6661 5.03549 6.93587 52.6493 2.28359
                7.32178 55.5787 1.33797 7.4132  56.2727 1.11396
                7.50854 56.9963 1.      7.60449 57.7247 1.
                5.93298 50.7309 8.14    5.93298 50.7309 5.03549
                6.16522 52.7168 2.28359 6.50825 55.6499 1.33797
                6.58951 56.3447 1.11396 6.67426 57.0693 1.
                6.75955 57.7986 1.      5.19136 50.7958 8.14
                5.19136 50.7958 5.03634 5.39447 52.7833 2.28388
                5.69472 55.7211 1.33797 5.76585 56.417  1.1139
                5.83997 57.1423 1.      5.9146  57.8725 1.
                4.44974 50.8607 8.14    4.44974 50.8607 5.03634
                4.62384 52.8507 2.28388 4.88119 55.7922 1.33797
                4.94215 56.4891 1.1139  5.00569 57.2153 1.
                5.06966 57.9465 1.      3.70811 50.9256 8.14
                3.70811 50.9256 5.03634 3.8532  52.9181 2.28388
                4.06766 55.8634 1.33797 4.11846 56.5611 1.1139
                4.17141 57.2883 1.      4.22472 58.0204 1.
                2.96649 50.9905 8.14    2.96649 50.9905 5.03549
                3.08266 52.9864 2.28359 3.25413 55.9346 1.33797
                3.29474 56.633  1.11396 3.33713 57.3613 1.
                3.37977 58.0943 1.      2.22487 51.0554 8.14
                2.22487 51.0554 5.03549 2.31196 53.0539 2.28359
                2.44059 56.0058 1.33797 2.47107 56.705  1.11396
                2.50285 57.4343 1.      2.53483 58.1682 1.
                1.48325 51.1202 8.14    1.48325 51.1202 5.03549
                1.54125 53.1213 2.28359 1.62706 56.0769 1.33797
                1.64739 56.7771 1.11396 1.66856 57.5073 1.
                1.68989 58.2422 1.      .741622 51.1851 8.14
                .741622 51.1851 5.03295 .770749 53.1914 2.28274
                .813532 56.1481 1.33797 .823666 56.8485 1.11417
                .834284 57.5803 1.      .844943 58.3161 1.
                 0.     51.25   8.14     0.     51.25   5.03295
                 0.     53.2588 2.28274  0.     56.2193 1.33797
                 0.     56.9206 1.11417  0.     57.6533 1.
                 0.     58.39   1.
                1.      1.      1.      1.      1.      1.      1.
                1.      1.      1.      1.      1.      1.      1.
                1.      1.      1.      1.      1.      1.      1.
                1.      1.      1.      1.      1.      1.      1.
                1.      1.      1.      1.      1.      1.      1.
                1.      1.      1.      1.      1.      1.      1.
                1.      1.      1.      1.      1.      1.      1.
                1.      1.      1.      1.      1.      1.      1.
                1.      1.      1.      1.      1.      1.      1.
                1.      1.      1.      1.      1.      1.      1.
                1.      1.      1.      1.      1.      1.      1.
                1.      1.      1.      1.      1.      1.      1.
                1.      1.      1.      1.      1.      1.      1.
                 0.      0.      0.      0.     .803525 .803525 .803525
                1.      1.      1.      1.       0.      0.      0.
                 0.     .250591 .250591 .250591 .500473 .500473 .500473
                .750118 .750118 .750118 1.      1.      1.      1.
         NURBS   -4      4       4       4       50      50      4
                51.25    0.     70.     51.25    0.     49.38
                51.25    0.     28.76   51.25    0.     8.14
                50.9905 2.96649 70.     50.9905 2.96649 49.38
                50.9905 2.96649 28.76   50.9905 2.96649 8.14
                50.7309 5.93298 70.     50.7309 5.93298 49.38
                50.7309 5.93298 28.76   50.7309 5.93298 8.14
                50.4714 8.89947 70.     50.4714 8.89947 49.38
                50.4714 8.89947 28.76   50.4714 8.89947 8.14
                1.      1.      1.      1.      1.      1.      1.
                1.      1.      1.      1.      1.      1.      1.
                1.      1.
                 0.      0.      0.      0.     1.      1.      1.
                1.       0.      0.      0.      0.     1.      1.
                1.      1.
                 9       2       2       50
                        1.      1.
                         0.     1.
                        1.      1.
                         0.      0.     1.      1.
                 9       2       2       50
                         0.     1.
                         0.      0.
                        1.      1.
                         0.      0.     1.      1.
                 9       2       2       50
                         0.      0.
                        1.       0.
                        1.      1.
                         0.      0.     1.      1.
                 9       2       2       50
                        1.       0.
                        1.      1.
                        1.      1.
                         0.      0.     1.      1.
         NURBS   -4      4       4       4       50      50      4
                50.4714 8.89947 70.     50.4714 8.89947 49.38
                50.4714 8.89947 28.76   50.4714 8.89947 8.14
                49.7007 11.7758 70.     49.7007 11.7758 49.38
                49.7007 11.7758 28.76   49.7007 11.7758 8.14
                48.93   14.6522 70.     48.93   14.6522 49.38
                48.93   14.6522 28.76   48.93   14.6522 8.14
                48.1593 17.5285 70.     48.1593 17.5285 49.38
                48.1593 17.5285 28.76   48.1593 17.5285 8.14
                1.      1.      1.      1.      1.      1.      1.
                1.      1.      1.      1.      1.      1.      1.
                1.      1.
                 0.      0.      0.      0.     1.      1.      1.
                1.       0.      0.      0.      0.     1.      1.
                1.      1.
                 9       2       2       50
                        1.      1.
                         0.     1.
                        1.      1.
                         0.      0.     1.      1.
                 9       2       2       50
                         0.     1.
                         0.      0.
                        1.      1.
                         0.      0.     1.      1.
                 9       2       2       50
                         0.      0.
                        1.       0.
                        1.      1.
                         0.      0.     1.      1.
                 9       2       2       50
                        1.       0.
                        1.      1.
                        1.      1.
                         0.      0.     1.      1.
         NURBS   -4      4       4       4       50      50      4
                48.1593 17.5285 70.     48.1593 17.5285 49.38
                48.1593 17.5285 28.76   48.1593 17.5285 8.14
                46.9008 20.2274 70.     46.9008 20.2274 49.38
                46.9008 20.2274 28.76   46.9008 20.2274 8.14
                45.6423 22.9262 70.     45.6423 22.9262 49.38
                45.6423 22.9262 28.76   45.6423 22.9262 8.14
                44.3838 25.625  70.     44.3838 25.625  49.38
                44.3838 25.625  28.76   44.3838 25.625  8.14
                1.      1.      1.      1.      1.      1.      1.
                1.      1.      1.      1.      1.      1.      1.
                1.      1.
                 0.      0.      0.      0.     1.      1.      1.
                1.       0.      0.      0.      0.     1.      1.
                1.      1.
                 9       2       2       50
                        1.      1.
                         0.     1.
                        1.      1.
                         0.      0.     1.      1.
                 9       2       2       50
                         0.     1.
                         0.      0.
                        1.      1.
                         0.      0.     1.      1.
                 9       2       2       50
                         0.      0.
                        1.       0.
                        1.      1.
                         0.      0.     1.      1.
                 9       2       2       50
                        1.       0.
                        1.      1.
                        1.      1.
                         0.      0.     1.      1.
         NURBS   -4      4       4       4       50      50      4
                44.3838 25.625  70.     44.3838 25.625  49.38
                44.3838 25.625  28.76   44.3838 25.625  8.14
                42.6758 28.0643 70.     42.6758 28.0643 49.38
                42.6758 28.0643 28.76   42.6758 28.0643 8.14
                40.9678 30.5036 70.     40.9678 30.5036 49.38
                40.9678 30.5036 28.76   40.9678 30.5036 8.14
                39.2598 32.9429 70.     39.2598 32.9429 49.38
                39.2598 32.9429 28.76   39.2598 32.9429 8.14
                1.      1.      1.      1.      1.      1.      1.
                1.      1.      1.      1.      1.      1.      1.
                1.      1.
                 0.      0.      0.      0.     1.      1.      1.
                1.       0.      0.      0.      0.     1.      1.
                1.      1.
                 9       2       2       50
                        1.      1.
                         0.     1.
                        1.      1.
                         0.      0.     1.      1.
                 9       2       2       50
                         0.     1.
                         0.      0.
                        1.      1.
                         0.      0.     1.      1.
                 9       2       2       50
                         0.      0.
                        1.       0.
                        1.      1.
                         0.      0.     1.      1.
                 9       2       2       50
                        1.       0.
                        1.      1.
                        1.      1.
                         0.      0.     1.      1.
         NURBS   -2      2       2       2       50      50      4
                39.2598 32.9429 70.     39.2598 32.9429 8.14
                32.9429 39.2598 70.     32.9429 39.2598 8.14
                1.      1.      1.      1.
                 0.      0.     1.      1.       0.      0.     1.
                1.
                 9       2       2       50
                        1.      1.
                         0.     1.
                        1.      1.
                         0.      0.     1.      1.
                 9       2       2       50
                         0.     1.
                         0.      0.
                        1.      1.
                         0.      0.     1.      1.
                 9       2       2       50
                         0.      0.
                        1.       0.
                        1.      1.
                         0.      0.     1.      1.
                 9       2       2       50
                        1.       0.
                        1.      1.
                        1.      1.
                         0.      0.     1.      1.
         NURBS   -4      4       4       4       50      50      4
                32.9429 39.2598 70.     32.9429 39.2598 49.38
                32.9429 39.2598 28.76   32.9429 39.2598 8.14
                30.5036 40.9678 70.     30.5036 40.9678 49.38
                30.5036 40.9678 28.76   30.5036 40.9678 8.14
                28.0643 42.6758 70.     28.0643 42.6758 49.38
                28.0643 42.6758 28.76   28.0643 42.6758 8.14
                25.625  44.3838 70.     25.625  44.3838 49.38
                25.625  44.3838 28.76   25.625  44.3838 8.14
                1.      1.      1.      1.      1.      1.      1.
                1.      1.      1.      1.      1.      1.      1.
                1.      1.
                 0.      0.      0.      0.     1.      1.      1.
                1.       0.      0.      0.      0.     1.      1.
                1.      1.
                 9       2       2       50
                        1.      1.
                         0.     1.
                        1.      1.
                         0.      0.     1.      1.
                 9       2       2       50
                         0.     1.
                         0.      0.
                        1.      1.
                         0.      0.     1.      1.
                 9       2       2       50
                         0.      0.
                        1.       0.
                        1.      1.
                         0.      0.     1.      1.
                 9       2       2       50
                        1.       0.
                        1.      1.
                        1.      1.
                         0.      0.     1.      1.
         NURBS   -4      4       4       4       50      50      4
                25.625  44.3838 70.     25.625  44.3838 49.38
                25.625  44.3838 28.76   25.625  44.3838 8.14
                22.9262 45.6423 70.     22.9262 45.6423 49.38
                22.9262 45.6423 28.76   22.9262 45.6423 8.14
                20.2274 46.9008 70.     20.2274 46.9008 49.38
                20.2274 46.9008 28.76   20.2274 46.9008 8.14
                17.5285 48.1593 70.     17.5285 48.1593 49.38
                17.5285 48.1593 28.76   17.5285 48.1593 8.14
                1.      1.      1.      1.      1.      1.      1.
                1.      1.      1.      1.      1.      1.      1.
                1.      1.
                 0.      0.      0.      0.     1.      1.      1.
                1.       0.      0.      0.      0.     1.      1.
                1.      1.
                 9       2       2       50
                        1.      1.
                         0.     1.
                        1.      1.
                         0.      0.     1.      1.
                 9       2       2       50
                         0.     1.
                         0.      0.
                        1.      1.
                         0.      0.     1.      1.
                 9       2       2       50
                         0.      0.
                        1.       0.
                        1.      1.
                         0.      0.     1.      1.
                 9       2       2       50
                        1.       0.
                        1.      1.
                        1.      1.
                         0.      0.     1.      1.
         NURBS   -4      4       4       4       50      50      4
                17.5285 48.1593 70.     17.5285 48.1593 49.38
                17.5285 48.1593 28.76   17.5285 48.1593 8.14
                14.6522 48.93   70.     14.6522 48.93   49.38
                14.6522 48.93   28.76   14.6522 48.93   8.14
                11.7758 49.7007 70.     11.7758 49.7007 49.38
                11.7758 49.7007 28.76   11.7758 49.7007 8.14
                8.89947 50.4714 70.     8.89947 50.4714 49.38
                8.89947 50.4714 28.76   8.89947 50.4714 8.14
                1.      1.      1.      1.      1.      1.      1.
                1.      1.      1.      1.      1.      1.      1.
                1.      1.
                 0.      0.      0.      0.     1.      1.      1.
                1.       0.      0.      0.      0.     1.      1.
                1.      1.
                 9       2       2       50
                        1.      1.
                         0.     1.
                        1.      1.
                         0.      0.     1.      1.
                 9       2       2       50
                         0.     1.
                         0.      0.
                        1.      1.
                         0.      0.     1.      1.
                 9       2       2       50
                         0.      0.
                        1.       0.
                        1.      1.
                         0.      0.     1.      1.
                 9       2       2       50
                        1.       0.
                        1.      1.
                        1.      1.
                         0.      0.     1.      1.
         NURBS   -4      4       4       4       50      50      4
                8.89947 50.4714 70.     8.89947 50.4714 49.38
                8.89947 50.4714 28.76   8.89947 50.4714 8.14
                5.93298 50.7309 70.     5.93298 50.7309 49.38
                5.93298 50.7309 28.76   5.93298 50.7309 8.14
                2.96649 50.9905 70.     2.96649 50.9905 49.38
                2.96649 50.9905 28.76   2.96649 50.9905 8.14
                 0.     51.25   70.      0.     51.25   49.38
                 0.     51.25   28.76    0.     51.25   8.14
                1.      1.      1.      1.      1.      1.      1.
                1.      1.      1.      1.      1.      1.      1.
                1.      1.
                 0.      0.      0.      0.     1.      1.      1.
                1.       0.      0.      0.      0.     1.      1.
                1.      1.
                 9       2       2       50
                        1.      1.
                         0.     1.
                        1.      1.
                         0.      0.     1.      1.
                 9       2       2       50
                         0.     1.
                         0.      0.
                        1.      1.
                         0.      0.     1.      1.
                 9       2       2       50
                         0.      0.
                        1.       0.
                        1.      1.
                         0.      0.     1.      1.
                 9       2       2       50
                        1.       0.
                        1.      1.
                        1.      1.
                         0.      0.     1.      1.
         NURBS   -2      2       2       2       50      50      4
                57.2479  0.     1.      100.255  0.     1.
                57.2479 17.469  1.      100.255 17.469  1.
                1.      1.      1.      1.
                 0.      0.     1.      1.       0.      0.     1.
                1.
                 9       2       2       50
                        .95875  .99404
                        .00593  .58042
                        1.      1.
                         0.      0.     1.      1.
                 9       2       2       50
                        .00593  .58042
                        .02656   0.
                        1.      1.
                         0.      0.     1.      1.
                 9       2       2       50
                        .02656   0.
                        .99407   0.
                        1.      1.
                         0.      0.     1.      1.
                 9       2       2       50
                        .99407   0.
                        .95875  .99404
                        1.      1.
                         0.      0.     1.      1.
         NURBS   -2      2       2       2       50      50      4
                56.3782 9.941   1.      98.7319 17.4091 1.
                53.3448 27.1446 1.      95.6984 34.6127 1.
                1.      1.      1.      1.
                 0.      0.     1.      1.       0.      0.     1.
                1.
                 9       2       2       50
                        .95875  .99404
                        .00593  .58042
                        1.      1.
                         0.      0.     1.      1.
                 9       2       2       50
                        .00593  .58042
                        .02656   0.
                        1.      1.
                         0.      0.     1.      1.
                 9       2       2       50
                        .02656   0.
                        .99407   0.
                        1.      1.
                         0.      0.     1.      1.
                 9       2       2       50
                        .99407   0.
                        .95875  .99404
                        1.      1.
                         0.      0.     1.      1.
         NURBS   -2      2       2       2       50      50      4
                53.8311 19.482  1.      94.2445 34.1913 1.
                47.8207 35.9955 1.      88.2341 50.7047 1.
                1.      1.      1.      1.
                 0.      0.     1.      1.       0.      0.     1.
                1.
                 9       2       2       50
                        .95875  .99407
                        .00593  .58291
                        1.      1.
                         0.      0.     1.      1.
                 9       2       2       50
                        .00593  .58291
                        .02656  .00593
                        1.      1.
                         0.      0.     1.      1.
                 9       2       2       50
                        .02656  .00593
                        .99407  .00593
                        1.      1.
                         0.      0.     1.      1.
                 9       2       2       50
                        .99407  .00593
                        .95875  .99407
                        1.      1.
                         0.      0.     1.      1.
         NURBS   -2      2       2       2       50      50      4
                49.614  28.5262 1.      86.9118 49.9739 1.
                40.8187 43.8213 1.      78.1166 65.269  1.
                1.      1.      1.      1.
                 0.      0.     1.      1.       0.      0.     1.
                1.
                 9       2       2       50
                        .95806  .99407
                        .00593  .58051
                        1.      1.
                         0.      0.     1.      1.
                 9       2       2       50
                        .00593  .58051
                        .02696  .00593
                        1.      1.
                         0.      0.     1.      1.
                 9       2       2       50
                        .02696  .00593
                        .99407  .01002
                        1.      1.
                         0.      0.     1.      1.
                 9       2       2       50
                        .99407  .01002
                        .95806  .99407
                        1.      1.
                         0.      0.     1.      1.
         NURBS   -2      2       2       2       50      50      4
                43.8545 36.7983 1.      76.7998 64.4427 1.
                32.6256 50.1803 1.      65.5709 77.8247 1.
                1.      1.      1.      1.
                 0.      0.     1.      1.       0.      0.     1.
                1.
                 9       2       2       50
                        .95875  .99404
                        .00593  .58042
                        1.      1.
                         0.      0.     1.      1.
                 9       2       2       50
                        .00593  .58042
                        .02656   0.
                        1.      1.
                         0.      0.     1.      1.
                 9       2       2       50
                        .02656   0.
                        .99407   0.
                        1.      1.
                         0.      0.     1.      1.
                 9       2       2       50
                        .99407   0.
                        .95875  .99404
                        1.      1.
                         0.      0.     1.      1.
         NURBS   -2      2       2       2       50      50      4
                36.7983 43.8545 1.      64.4427 76.7998 1.
                23.4162 55.0833 1.      51.0606 88.0286 1.
                1.      1.      1.      1.
                 0.      0.     1.      1.       0.      0.     1.
                1.
                 9       2       2       50
                        .95875  .99404
                        .00593  .58042
                        1.      1.
                         0.      0.     1.      1.
                 9       2       2       50
                        .00593  .58042
                        .02656   0.
                        1.      1.
                         0.      0.     1.      1.
                 9       2       2       50
                        .02656   0.
                        .99407   0.
                        1.      1.
                         0.      0.     1.      1.
                 9       2       2       50
                        .99407   0.
                        .95875  .99404
                        1.      1.
                         0.      0.     1.      1.
         NURBS   -2      2       2       2       50      50      4
                28.7142 49.5261 1.      50.2177 86.7713 1.
                13.4954 58.3127 1.      34.9989 95.5579 1.
                1.      1.      1.      1.
                 0.      0.     1.      1.       0.      0.     1.
                1.
                 9       2       2       50
                        .95875  .99407
                        .00593  .58291
                        1.      1.
                         0.      0.     1.      1.
                 9       2       2       50
                        .00593  .58291
                        .02656  .00593
                        1.      1.
                         0.      0.     1.      1.
                 9       2       2       50
                        .02656  .00593
                        .99407  .00593
                        1.      1.
                         0.      0.     1.      1.
                 9       2       2       50
                        .99407  .00593
                        .95875  .99407
                        1.      1.
                         0.      0.     1.      1.
         NURBS   -2      2       2       2       50      50      4
                19.6779 53.7598 1.      34.3871 94.1732 1.
                3.16445 59.7702 1.      17.8737 100.184 1.
                1.      1.      1.      1.
                 0.      0.     1.      1.       0.      0.     1.
                1.
                 9       2       2       50
                        .95875  .99407
                        .00593  .58291
                        1.      1.
                         0.      0.     1.      1.
                 9       2       2       50
                        .00593  .58291
                        .02656  .00593
                        1.      1.
                         0.      0.     1.      1.
                 9       2       2       50
                        .02656  .00593
                        .99407  .00593
                        1.      1.
                         0.      0.     1.      1.
                 9       2       2       50
                        .99407  .00593
                        .95875  .99407
                        1.      1.
                         0.      0.     1.      1.
         NURBS   -2      2       2       2       50      50      4
                9.941   56.3782 1.      17.4091 98.7319 1.
                -7.2626159.4117 1.      .205482 101.765 1.
                1.      1.      1.      1.
                 0.      0.     1.      1.       0.      0.     1.
                1.
                 9       2       2       50
                        .95875  .99404
                        .00593  .58042
                        1.      1.
                         0.      0.     1.      1.
                 9       2       2       50
                        .00593  .58042
                        .02656   0.
                        1.      1.
                         0.      0.     1.      1.
                 9       2       2       50
                        .02656   0.
                        .99407   0.
                        1.      1.
                         0.      0.     1.      1.
                 9       2       2       50
                        .99407   0.
                        .95875  .99404
                        1.      1.
                         0.      0.     1.      1.
$ Rigid Body Contact LBC set: HOLDER
BCBODY   3       3D      RIGID           0               1       0
         0       0.      0.      0.      0.      0.      0.      0.
        RIGID   0       9       HOLDER
         NURBS   -2      2       2       2       50      50      4
                100.255  0.     -.1     57.2479  0.     -.1
                100.255 17.469  -.1     57.2479 17.469  -.1
                1.      1.      1.      1.
                 0.      0.     1.      1.       0.      0.     1.
                1.
                 9       2       2       50
                        .99407  .58042
                        .04125  .99404
                        1.      1.
                         0.      0.     1.      1.
                 9       2       2       50
                        .04125  .99404
                        .00593   0.
                        1.      1.
                         0.      0.     1.      1.
                 9       2       2       50
                        .00593   0.
                        .97344   0.
                        1.      1.
                         0.      0.     1.      1.
                 9       2       2       50
                        .97344   0.
                        .99407  .58042
                        1.      1.
                         0.      0.     1.      1.
         NURBS   -2      2       2       2       50      50      4
                98.7319 17.4091 -.1     56.3782 9.941   -.1
                95.6984 34.6127 -.1     53.3448 27.1446 -.1
                1.      1.      1.      1.
                 0.      0.     1.      1.       0.      0.     1.
                1.
                 9       2       2       50
                        .99407  .58042
                        .04125  .99404
                        1.      1.
                         0.      0.     1.      1.
                 9       2       2       50
                        .04125  .99404
                        .00593   0.
                        1.      1.
                         0.      0.     1.      1.
                 9       2       2       50
                        .00593   0.
                        .97344   0.
                        1.      1.
                         0.      0.     1.      1.
                 9       2       2       50
                        .97344   0.
                        .99407  .58042
                        1.      1.
                         0.      0.     1.      1.
         NURBS   -2      2       2       2       50      50      4
                94.2445 34.1913 -.1     53.8311 19.482  -.1
                88.2341 50.7047 -.1     47.8207 35.9955 -.1
                1.      1.      1.      1.
                 0.      0.     1.      1.       0.      0.     1.
                1.
                 9       2       2       50
                        .99407  .58291
                        .04125  .99407
                        1.      1.
                         0.      0.     1.      1.
                 9       2       2       50
                        .04125  .99407
                        .00593  .00593
                        1.      1.
                         0.      0.     1.      1.
                 9       2       2       50
                        .00593  .00593
                        .97344  .00593
                        1.      1.
                         0.      0.     1.      1.
                 9       2       2       50
                        .97344  .00593
                        .99407  .58291
                        1.      1.
                         0.      0.     1.      1.
         NURBS   -2      2       2       2       50      50      4
                86.8755 50.0373 -.1     49.6303 28.5337 -.1
                78.0889 65.2561 -.1     40.8437 43.7526 -.1
                1.      1.      1.      1.
                 0.      0.     1.      1.       0.      0.     1.
                1.
                 9       2       2       50
                        .99407  .58291
                        .04125  .99407
                        1.      1.
                         0.      0.     1.      1.
                 9       2       2       50
                        .04125  .99407
                        .00593  .00593
                        1.      1.
                         0.      0.     1.      1.
                 9       2       2       50
                        .00593  .00593
                        .97344  .00593
                        1.      1.
                         0.      0.     1.      1.
                 9       2       2       50
                        .97344  .00593
                        .99407  .58291
                        1.      1.
                         0.      0.     1.      1.
         NURBS   -2      2       2       2       50      50      4
                76.7998 64.4427 -.1     43.8545 36.7983 -.1
                65.5709 77.8247 -.1     32.6256 50.1803 -.1
                1.      1.      1.      1.
                 0.      0.     1.      1.       0.      0.     1.
                1.
                 9       2       2       50
                        .99407  .58042
                        .04125  .99404
                        1.      1.
                         0.      0.     1.      1.
                 9       2       2       50
                        .04125  .99404
                        .00593   0.
                        1.      1.
                         0.      0.     1.      1.
                 9       2       2       50
                        .00593   0.
                        .97344   0.
                        1.      1.
                         0.      0.     1.      1.
                 9       2       2       50
                        .97344   0.
                        .99407  .58042
                        1.      1.
                         0.      0.     1.      1.
         NURBS   -2      2       2       2       50      50      4
                64.4427 76.7998 -.1     36.7983 43.8545 -.1
                51.0606 88.0286 -.1     23.4162 55.0833 -.1
                1.      1.      1.      1.
                 0.      0.     1.      1.       0.      0.     1.
                1.
                 9       2       2       50
                        .99407  .58042
                        .04125  .99404
                        1.      1.
                         0.      0.     1.      1.
                 9       2       2       50
                        .04125  .99404
                        .00593   0.
                        1.      1.
                         0.      0.     1.      1.
                 9       2       2       50
                        .00593   0.
                        .97344   0.
                        1.      1.
                         0.      0.     1.      1.
                 9       2       2       50
                        .97344   0.
                        .99407  .58042
                        1.      1.
                         0.      0.     1.      1.
         NURBS   -2      2       2       2       50      50      4
                50.2177 86.7713 -.1     28.7142 49.5261 -.1
                34.9989 95.5579 -.1     13.4954 58.3127 -.1
                1.      1.      1.      1.
                 0.      0.     1.      1.       0.      0.     1.
                1.
                 9       2       2       50
                        .99407  .58291
                        .04125  .99407
                        1.      1.
                         0.      0.     1.      1.
                 9       2       2       50
                        .04125  .99407
                        .00593  .00593
                        1.      1.
                         0.      0.     1.      1.
                 9       2       2       50
                        .00593  .00593
                        .97344  .00593
                        1.      1.
                         0.      0.     1.      1.
                 9       2       2       50
                        .97344  .00593
                        .99407  .58291
                        1.      1.
                         0.      0.     1.      1.
         NURBS   -2      2       2       2       50      50      4
                34.3871 94.1732 -.1     19.6779 53.7598 -.1
                17.8737 100.184 -.1     3.16445 59.7702 -.1
                1.      1.      1.      1.
                 0.      0.     1.      1.       0.      0.     1.
                1.
                 9       2       2       50
                        .99407  .58291
                        .04125  .99407
                        1.      1.
                         0.      0.     1.      1.
                 9       2       2       50
                        .04125  .99407
                        .00593  .00593
                        1.      1.
                         0.      0.     1.      1.
                 9       2       2       50
                        .00593  .00593
                        .97344  .00593
                        1.      1.
                         0.      0.     1.      1.
                 9       2       2       50
                        .97344  .00593
                        .99407  .58291
                        1.      1.
                         0.      0.     1.      1.
         NURBS   -2      2       2       2       50      50      4
                17.4091 98.7319 -.1     9.941   56.3782 -.1
                .205482 101.765 -.1     -7.2626159.4117 -.1
                1.      1.      1.      1.
                 0.      0.     1.      1.       0.      0.     1.
                1.
                 9       2       2       50
                        .99407  .58042
                        .04125  .99404
                        1.      1.
                         0.      0.     1.      1.
                 9       2       2       50
                        .04125  .99404
                        .00593   0.
                        1.      1.
                         0.      0.     1.      1.
                 9       2       2       50
                        .00593   0.
                        .97344   0.
                        1.      1.
                         0.      0.     1.      1.
                 9       2       2       50
                        .97344   0.
                        .99407  .58042
                        1.      1.
                         0.      0.     1.      1.
$ Referenced Coordinate Frames
ENDDATA 19159cb9
